47
Coordinates from ORCA-job CCCC-XXXX-CON1 E -3371.348405473532
  C         -11.28900000846069      5.86299999907477      1.40300000124825
  C         -11.11860919674550      4.41367721706578      0.99411311041214
  S          -9.72100334795801      3.57265659805627      1.81637313785562
  C          -4.39799999283196      8.22600000331612      0.70600000057960
  C          -5.43012922327238      7.11277223104494      0.64642224100080
  C          -6.39580756010374      7.14879102705505      1.77625079445838
  C          -6.45580473278768      8.00587077076044      2.83832785065686
  N          -7.42890182136797      6.24345623043912      1.89724469109107
  C          -8.08739610556000      6.54718790193384      2.99920341493732
  N          -7.52892402035565      7.60521420084442      3.59128605443761
  C          -5.78299999835747      4.09399999989716      4.34300000140149
  C          -6.42862842315987      2.93153490871550      3.59574575637574
  C          -5.82044409989103      2.70089588277671      2.25848697122639
  C          -4.75838831331543      1.91294835343968      1.91623599048538
  N          -6.25314628138211      3.35320858526863      1.12405619045287
  C          -5.47406040778719      2.96917255869165      0.13111044855032
  N          -4.55959007849154      2.10122539431794      0.57435992889442
  C          -8.13400000034987      2.90799999771195     -3.42500000322933
  C          -8.48068141557334      3.19245847524005     -1.97669138510746
  S          -7.97815638100465      4.87712995581503     -1.46381390437947
  Zn         -7.90001525120031      4.56575411586131      0.81268015664029
  H         -10.41085629046489      6.45021464577145      1.12370871030361
  H         -11.42367008803616      5.95260258498882      2.48369565098344
  H         -12.16254520951268      6.30342089125934      0.91101326694890
  H         -10.98128110166518      4.34234061281558     -0.08760712133423
  H         -12.01732068828187      3.84428445863845      1.24368378188250
  H          -3.80747051554860      8.16820101928567      1.62356937832045
  H          -4.87503704988842      9.20852031566572      0.67442128582104
  H          -3.71253756927335      8.15680484506468     -0.14000501387542
  H          -4.93234262214263      6.13675187049272      0.64061955114054
  H          -5.98767063591399      7.16493642890787     -0.29495705787878
  H          -5.84560197703351      8.84761457618936      3.11740457153689
  H          -8.94529163431488      6.01427960491304      3.37665840089422
  H          -7.84683614567737      8.03348307955909      4.44628465984044
  H          -5.83722713572628      5.01294942317857      3.75597106644164
  H          -4.72997431041968      3.88590918422559      4.54593195261026
  H          -6.28695417197027      4.26907339783703      5.29616571462860
  H          -6.33822832513080      2.01816630014645      4.18872329221576
  H          -7.49753565699164      3.12461904640793      3.46636725501425
  H          -4.14095098284178      1.25174920647968      2.50103464298925
  H          -5.56151122482339      3.29989777082681     -0.89218420409843
  H          -3.85302791981293      1.65587588143729      0.01020040472437
  H          -7.05528780477943      2.97246266586121     -3.58803369996737
  H          -8.61807826582147      3.62500836155507     -4.09310035624164
  H          -8.46338616212985      1.90368758191093     -3.70844530256823
  H          -7.98760100040413      2.46579617870773     -1.32666372056093
  H          -9.55611856946417      3.08560331581925     -1.81644012035755
