47
Coordinates from ORCA-job CCCC-XXXX-CON1 E -3371.348405473532
C       -3.38898476       1.29724588       0.59031984 # dw=0.00963
C       -3.21859395      -0.15207690       0.18143295
S       -1.82098810      -0.99309752       1.00369298 # dw=0.00261
C        3.50201526       3.66024589      -0.10668016 # dw=0.00578
C        2.46988603       2.54701812      -0.16625792
C        1.50420769       2.58303691       0.96357064
C        1.44421052       3.44011665       2.02564769
N        0.47111343       1.67770211       1.08456453 # dw=0.00285
C       -0.18738085       1.98143379       2.18652326
N        0.37109123       3.03946008       2.77860590
C        2.11701525      -0.47175412       3.53031984 # dw=0.00950
C        1.47138683      -1.63421921       2.78306560
C        2.07957115      -1.86485823       1.44580681
C        3.14162694      -2.65280576       1.10355583
N        1.64686897      -1.21254553       0.31137603 # dw=0.00298
C        2.42595484      -1.59658156      -0.68156971
N        3.34042517      -2.46452872      -0.23832023
C       -0.23398475      -1.65775412      -4.23768016 # dw=0.00525
C       -0.58066616      -1.37329564      -2.78937154
S       -0.07814113       0.31137584      -2.27649406 # dw=0.00255
Zn       0.00000000       0.00000000       0.00000000
H       -2.51084104       1.88446053       0.31102855
H       -3.52365484       1.38684847       1.67101549
H       -4.26252996       1.73766678       0.09833311
H       -3.08126585      -0.22341350      -0.90028728
H       -4.11730544      -0.72146966       0.43100363
H        4.09254474       3.60244690       0.81088922
H        3.02497820       4.64276620      -0.13825887
H        4.18747768       3.59105073      -0.95268517
H        2.96767263       1.57099775      -0.17206061
H        1.91234462       2.59918231      -1.10763721
H        2.05441327       4.28186046       2.30472441
H       -1.04527638       1.44852549       2.56397824
H        0.05317911       3.46772896       3.63360450
H        2.06278812       0.44719531       2.94329091
H        3.17004094      -0.67984493       3.73325180
H        1.61306108      -0.29668072       4.48348556
H        1.56178693      -2.54758782       3.37604314
H        0.40247959      -1.44113507       2.65368710
H        3.75906427      -3.31400491       1.68835449
H        2.33850403      -1.26585635      -1.70486436
H        4.04698733      -2.90987823      -0.80247975
H        0.84472745      -1.59329145      -4.40071386
H       -0.71806301      -0.94074575      -4.90578051
H       -0.56337091      -2.66206653      -4.52112546
H       -0.08758575      -2.09995794      -2.13934388
H       -1.65610332      -1.48015080      -2.62912028
