47
Coordinates from ORCA-job Cx2Cx12Hx4H-LLHH-1llm-cluster2-H-only E -3371.331963096788
C        0.41932576      -0.32525680       4.57694526 # dw=0.00532
C       -0.07168103      -0.04161059       3.16892922
S        0.57788825      -1.18518417       1.94830019 # dw=0.00297
C        3.47253161       1.85145918       0.37136579
C        2.43623902       1.98836943      -0.74905701
S        0.72602972       2.09545749      -0.15485395 # dw=0.00219
C       -5.80812776      -2.45234693      -0.30208540 # dw=0.00801
C       -5.45534678      -1.18432381       0.46716875
C       -4.18051154      -0.55110821      -0.00663513 # dw=0.00392
N       -4.12215550       0.30375251      -1.08888359
C       -2.91384173      -0.64468347       0.46394352
C       -2.87769027       0.70174962      -1.27090171
N       -2.12369288       0.13926595      -0.34498484 # dw=0.00388
C        0.39314084      -5.25506282      -3.91423494
C        1.05985501      -4.82579976      -2.59152582 # dw=0.00426
C        0.97704183      -3.38197607      -2.29034956
N        1.40840831      -2.40562955      -3.17430173
C        0.50210124      -2.71644583      -1.21103361
C        1.19224866      -1.20288123      -2.63739813
N        0.64747184      -1.37937311      -1.45582932 # dw=0.00321
Zn       0.00000000       0.00000000       0.00000000
H       -0.00826879       0.39040112       5.28548164
H        1.50862467      -0.25167657       4.63312940
H        0.13536928      -1.33139775       4.89700689
H       -1.16483117      -0.07952499       3.15290531
H        0.20806539       0.97703580       2.88374489
H        4.48516306       1.81754563      -0.04272824
H        3.30222106       0.93540510       0.94224638
H        3.40949701       2.69654862       1.06072503
H        2.63218734       2.89863645      -1.32065695
H        2.53039558       1.15096644      -1.44230272
H       -6.73727832      -2.88534383       0.07479242
H       -5.01687450      -3.19823522      -0.20076045
H       -5.94007175      -2.24189726      -1.36604078
H       -5.33578868      -1.41474992       1.52790403
H       -6.26995748      -0.45859973       0.38907229
H       -4.91680787       0.58323782      -1.64441310
H       -2.51102694      -1.20406313       1.29238394
H       -2.54451731       1.37108924      -2.04723994
H        0.49020901      -6.33374886      -4.04593218
H        0.86324982      -4.76679006      -4.77065339
H       -0.66858323      -4.99932481      -3.91510105
H        2.11141308      -5.13380997      -2.61394007
H        0.60082913      -5.36095093      -1.75753889
H        1.82241507      -2.57883613      -4.07723675
H        0.07259407      -3.09094611      -0.29667917
H        1.42351933      -0.26257550      -3.11020600
