47
Coordinates from ORCA-job Cx2Cx12Hx4H-LLHH-1llm-cluster2-H-only E -3371.331963096788
  C           0.41834304845022     -0.32764442512025      4.57678079781018
  C          -0.07266373949170     -0.04399821369458      3.16876476063633
  S           0.57690553867696     -1.18757179610946      1.94813573654182
  C           3.47154889980588      1.84907155820715      0.37120133188848
  C           2.43525631298389      1.98598181055827     -0.74922147102939
  S           0.72504700655532      2.09306986902451     -0.15501841151298
  C          -5.80911047138486     -2.45473455601819     -0.30224985372469
  C          -5.45632949006076     -1.18671143332748      0.46700429123546
  C          -4.18149425067049     -0.55349583508405     -0.00679959071286
  N          -4.12313821022109      0.30136488767738     -1.08904804540994
  C          -2.91482444263923     -0.64707109776559      0.46377906148662
  C          -2.87867298343426      0.69936199939233     -1.27106617192099
  N          -2.12467559291474      0.13687832650194     -0.34514930072289
  C           0.39215812464263     -5.25745044418059     -3.91439940123793
  C           1.05887229883366     -4.82818737959126     -2.59169027549906
  C           0.97605912098163     -3.38436369157139     -2.29051402230753
  N           1.40742559994952     -2.40801717315921     -3.17446619130212
  C           0.50111852994792     -2.71883345262812     -1.21119806476964
  C           1.19126594469661     -1.20526885290354     -2.63756258583691
  N           0.64648913172014     -1.38176073776385     -1.45599378192803
  Zn         -0.00098271182451     -0.00238762301122     -0.00016445741432
  H          -0.00925150611305      0.38801349427870      5.28531718595232
  H           1.50764196192431     -0.25406418968296      4.63296493931613
  H           0.13438656335822     -1.33378536918213      4.89684242810456
  H          -1.16581388567935     -0.08191261365854      3.15274085116812
  H           0.20708268013931      0.97464817747508      2.88358043590197
  H           4.48418034965022      1.81515800409940     -0.04289270157582
  H           3.30123834504944      0.93301747941218      0.94208192036217
  H           3.40851430279159      2.69416099282400      1.06056057190932
  H           2.63120462840158      2.89624882620183     -1.32082140546440
  H           2.52941286846385      1.14857881421244     -1.44246717624602
  H          -6.73826103224333     -2.88773145322627      0.07462796557785
  H          -5.01785720790273     -3.20062284549438     -0.20092490880549
  H          -5.94105445789498     -2.24428487866923     -1.36620524201177
  H          -5.33677139557214     -1.41713754436886      1.52773957374666
  H          -6.27094019434095     -0.46098735064430      0.38890783299029
  H          -4.91779058198959      0.58085019911798     -1.64457755512946
  H          -2.51200964969063     -1.20645075008567      1.29221948144797
  H          -2.54550002560515      1.36870161791798     -2.04740439405188
  H           0.48922629784400     -6.33613648006984     -4.04609664026726
  H           0.86226710933716     -4.76917768664890     -4.77081784529694
  H          -0.66956594536907     -5.00171243270897     -3.91526550971590
  H           2.11043036514240     -5.13619758866052     -2.61410452368353
  H           0.59984642114318     -5.36333855188959     -1.75770334646735
  H           1.82143235440754     -2.58122374812460     -4.07740120339938
  H           0.07161135611690     -3.09333373671493     -0.29684362916333
  H           1.42253661402855     -0.26496312514266     -3.11037045946843
