47
Coordinates from ORCA-job Cx15CHx15H-LLLL-1ia6-cluster1-H-only E -3371.333338346903
C        0.34442887       1.05276801       3.28697319
C        1.31013550       1.67114257       2.27335709
S        1.96835924       0.59339382       0.99207291 # dw=0.00249
C       -1.44917527      -3.96142746       0.85107968 # dw=0.00794
C       -2.08972902      -2.65564817       0.35821424
S       -1.56643323      -1.16119961       1.25170740 # dw=0.00270
C        1.93247679      -4.02164890      -0.92236356 # dw=0.00997
C        2.29117009      -2.56784763      -1.23763168
C        1.33096847      -1.91229126      -2.18271988
N        0.37858511      -1.00499334      -1.76795438 # dw=0.00297
C        1.14419449      -2.07000397      -3.51438807 # dw=0.00346
C       -0.35175825      -0.63150399      -2.80419290
N        0.09177559      -1.26412248      -3.87643568
C        0.39501667       6.02978963      -0.33281287 # dw=0.00744
C       -0.95962958       5.49464185      -0.78972905
C       -1.12048199       4.02076067      -0.59371184
N       -2.33714897       3.43700787      -0.30778328
C       -0.22263661       3.01066062      -0.65334874
C       -2.18010153       2.13105620      -0.19727843
N       -0.90639527       1.84584791      -0.40380827 # dw=0.00321
Zn       0.00000000       0.00000000       0.00000000
H        0.08986497       1.79162870       4.05300162
H        0.79075895       0.18472725       3.77835200
H       -0.57912777       0.72621889       2.80610234
H        0.82001927       2.52435584       1.79572979
H        2.17183471       2.07690889       2.81174953
H       -1.71657414      -4.79365616       0.19320388
H       -1.78861976      -4.19913860       1.86258420
H       -0.36389665      -3.87106715       0.88232045
H       -3.17657715      -2.72899806       0.44308233
H       -1.86429455      -2.52186793      -0.70267021
H        2.59635032      -4.42171486      -0.15312754
H        2.02892578      -4.64562500      -1.81388823
H        0.90644208      -4.10175850      -0.56866611
H        2.30231257      -1.97862081      -0.31713024
H        3.29906603      -2.52164854      -1.65795822
H        1.65499682      -2.68060416      -4.24075510
H       -1.16547668       0.07527649      -2.79234364
H       -0.27538437      -1.17306383      -4.81113973
H        0.45303699       7.10524871      -0.50787592
H        1.21297189       5.55561797      -0.87972476
H        0.54818653       5.84402502       0.73242453
H       -1.75968224       6.00632741      -0.24645128
H       -1.11093812       5.73646000      -1.84758746
H       -3.20395000       3.94039251      -0.19354874
H        0.83927916       3.02275727      -0.83132689
H       -2.95460239       1.42169366       0.04410600
