47
Coordinates from ORCA-job Cx15CHx15H-LLLL-1ia6-cluster1-H-only E -3371.333338346903
  C           0.34833541453569      1.04948300430263      3.28678324739659
  C           1.31404204856454      1.66785756450884      2.27316714635935
  S           1.97226578729456      0.59010881715387      0.99188296736265
  C          -1.44526871933665     -3.96471246615270      0.85088973095490
  C          -2.08582247091578     -2.65893317603324      0.35802429614212
  S          -1.56252668545275     -1.16448461429248      1.25151745069212
  C           1.93638333770500     -4.02493390402223     -0.92255350315678
  C           2.29507663601829     -2.57113263556723     -1.23782162648039
  C           1.33487501788676     -1.91557626701468     -2.18290982352215
  N           0.38249165425628     -1.00827834869533     -1.76814432851163
  C           1.14810104000011     -2.07328897493915     -3.51457801896480
  C          -0.34785170822968     -0.63478899305194     -2.80438285034653
  N           0.09568213091288     -1.26740748901603     -3.87662562712669
  C           0.39892321987028      6.02650462630742     -0.33300282007739
  C          -0.95572302942338      5.49135684561737     -0.78991899630396
  C          -1.11657544523123      4.01747565884539     -0.59390178377275
  N          -2.33324242433987      3.43372286701508     -0.30797322568187
  C          -0.21873006166198      3.00737561061294     -0.65353868601692
  C          -2.17619498727596      2.12777119124257     -0.19746837088850
  N          -0.90248872122398      1.84256290011699     -0.40399821877795
  Zn          0.00390654568475     -0.00328500765932     -0.00018994560427
  H           0.09377151925270      1.78834368760186      4.05281167620316
  H           0.79466549920216      0.18144223816805      3.77816205004052
  H          -0.57522121948537      0.72293388278917      2.80591239637755
  H           0.82392581344812      2.52107083649381      1.79553984540671
  H           2.17574125403057      2.07362387860441      2.81155958016479
  H          -1.71266759540769     -4.79694117088077      0.19301393502902
  H          -1.78471321545415     -4.20242361091666      1.86239425216672
  H          -0.35999010019247     -3.87435216072790      0.88213050488449
  H          -3.17267060699260     -2.73228307016523      0.44289238591627
  H          -1.86038800683758     -2.52515294238772     -0.70286015351582
  H           2.60025686110800     -4.42499986949071     -0.15331748473173
  H           2.03283232105967     -4.64891000300906     -1.81407817470753
  H           0.91034862700152     -4.10504350680050     -0.56885606017070
  H           2.30621911206738     -1.98190581423273     -0.31732018880969
  H           3.30297257097325     -2.52493355222621     -1.65814816876077
  H           1.65890336486913     -2.68388916596148     -4.24094505056313
  H          -1.16157013520377      0.07199148046818     -2.79253358602566
  H          -0.27147782017375     -1.17634884150372     -4.81132967469327
  H           0.45694353568535      7.10196370450996     -0.50806586966802
  H           1.21687843226071      5.55233296205460     -0.87991470757618
  H           0.55209307691681      5.84074000922576      0.73223458053286
  H          -1.75577569343816      6.00304240173258     -0.24664122115715
  H          -1.10703157170567      5.73317499007215     -1.84777741031299
  H          -3.20004345568724      3.93710750297471     -0.19373868924999
  H           0.84318570183578      3.01947226700314     -0.83151683847645
  H          -2.95069584877056      1.41840865732550      0.04391605802185
