47
Coordinates from ORCA-job Cx2Cx35Hx54H-LLLL-1z84-cluster2-H-only E -3371.339945843513
  C          -3.42183705147338     -0.56019371031667      2.92276801481764
  C          -2.05846427719178     -0.71545443196125      2.26676055551376
  S          -1.43919367556987      0.86512868841661      1.56894258387400
  C          -2.96259647304270     -0.62765383628133     -2.37857887406405
  C          -2.48129330231896     -1.79652338593309     -1.51436580210355
  S          -0.70015184919433     -1.82559751084831     -1.26661427492057
  C           3.11211672512048     -1.21460146844411     -1.86102593660561
  C           2.73991030661266     -2.12563685311564     -0.70212002588713
  C           2.70260894126487     -1.42610782220388      0.62417735519109
  N           1.66178763420852     -0.61110398819643      1.01921628751825
  C           3.58131674683061     -1.43248108912077      1.65156480601243
  C           1.90115138130784     -0.14183820881322      2.23123222186331
  N           3.06590441931582     -0.61928922373234      2.63723824184306
  C           2.31777925919314      4.01925436731902      0.80255464612415
  C           1.00274430341379      3.35888172080266      0.37021215132097
  C           0.97418953935585      2.83145220351454     -1.02397281838093
  N           0.56656467107472      1.54701435289584     -1.30918743324532
  C           1.19702022163644      3.42866836339323     -2.22189658308056
  C           0.55145503324467      1.36653683524446     -2.61724728086347
  N           0.95029159754314      2.48131807817572     -3.19509256626960
  Zn          0.00075997220534      0.00413599619230     -0.00139179968741
  H          -3.75301002525863     -1.51144369441006      3.35065322264314
  H          -4.16858437218167     -0.23380090729241      2.19483003613446
  H          -3.38804578289065      0.18012448197051      3.72610895902170
  H          -1.33040530612903     -1.07877090241824      2.99663335385598
  H          -2.10487455962548     -1.45283689455428      1.46358671911134
  H          -4.04729783091055     -0.66741295297430     -2.52068576756120
  H          -2.48333294721450     -0.65066366890375     -3.36011452971818
  H          -2.71270468937430      0.32386850506254     -1.90262396729691
  H          -2.74662403365026     -2.74405606251821     -1.98955032110649
  H          -2.99163527134219     -1.77065722419016     -0.54799806175203
  H           3.08007751831968     -1.76308432076158     -2.80485925251187
  H           4.11959035116672     -0.81135635834480     -1.73356676935114
  H           2.42022226248702     -0.37499994492794     -1.93479344142500
  H           3.45793571940423     -2.94599437342755     -0.62777199476809
  H           1.75868576319279     -2.57252192882810     -0.88220880352387
  H           4.52464784549248     -1.93731748266429      1.78198254918838
  H           1.25315366593657      0.51423905330814      2.79024075974146
  H           3.49888983379364     -0.44321201793169      3.53052091469844
  H           2.23636392083544      4.37725774797715      1.83039377720258
  H           2.56217717357720      4.87129886257541      0.16425686230951
  H           3.14508132765945      3.30763900470478      0.75008460358416
  H           0.77159441828615      2.52931540739270      1.04174127602513
  H           0.18656443912221      4.07899998227757      0.48925047205394
  H           1.52014884545044      4.42310792683966     -2.48253596168754
  H           0.27318109533915      0.45643832455248     -3.12372359311806
  H           1.02933551497720      2.63763836049908     -4.18811251072029
