47
Coordinates from ORCA-job 2lce-H-only E -3371.321450286570
C       -3.17113728       1.26277080       3.60625972 # dw=0.00538
C       -2.25596506       0.28945116       2.85188072
S       -1.55317550       1.09462463       1.40331885 # dw=0.00299
C       -3.72303554      -0.10992996      -1.75880521 # dw=0.00842
C       -2.65481098      -1.17352428      -1.47512861
S       -1.03894968      -0.57957536      -2.04057883 # dw=0.00299
C        4.81256624      -2.24876145       3.38634775 # dw=0.00538
C        3.34459978      -2.34477018       3.81746003
C        2.44953728      -2.23175871       2.61041342
N        2.43569769      -3.18743423       1.60505291
C        1.53133310      -1.28319352       2.23780882
C        1.53458789      -2.79423271       0.68381913
N        0.95336500      -1.63812446       1.02106485 # dw=0.00395
C        5.60722740       3.67454059      -0.88964132 # dw=0.00538
C        4.40523055       3.81092542       0.04930691
C        3.37142985       2.77048700      -0.29296343
N        2.99144058       2.50553590      -1.59977408
C        2.62462671       1.92486115       0.49262680
C        2.05863808       1.53537143      -1.56309464
N        1.79575808       1.14515512      -0.31182475 # dw=0.00395
Zn       0.00000000       0.00000000       0.00000000
H       -3.60829011       0.77225510       4.48088252
H       -3.98298287       1.60752402       2.96169311
H       -2.60954843       2.13694401       3.94321604
H       -1.45997902      -0.05753861       3.51560468
H       -2.82752810      -0.59048218       2.54643056
H       -4.71866548      -0.46002451      -1.46414684
H       -3.74581252       0.13261052      -2.82360662
H       -3.49789121       0.80124089      -1.20213738
H       -2.61544601      -1.39431129      -0.40720659
H       -2.88368050      -2.10085867      -2.00429391
H        5.47764422      -2.32512426       4.24934247
H        5.00338770      -1.29589791       2.88849732
H        5.06925351      -3.05276499       2.69340874
H        3.15769256      -3.29233809       4.33030251
H        3.08838439      -1.53801049       4.50551911
H        2.97846634      -4.03632565       1.57116378
H        1.25106647      -0.37979155       2.75606027
H        1.32830771      -3.35131146      -0.21692163
H        6.39302413       4.38060258      -0.61339294
H        5.33256137       3.88493464      -1.92508824
H        6.02272310       2.66590766      -0.84291065
H        3.96948132       4.81088559      -0.03695804
H        4.69986422       3.66865061       1.08981821
H        3.34278299       2.94562710      -2.43527642
H        2.62898427       1.82813401       1.56627694
H        1.58250673       1.14177051      -2.44789010
