47
Coordinates from ORCA-job 2lce-H-only E -3371.321450286570
  C          -3.16915332517424      1.26251572124243      3.60694802252322
  C          -2.25398110363398      0.28919607655145      2.85256902349181
  S          -1.55119154065201      1.09436954751902      1.40400714638279
  C          -3.72105157784099     -0.11018504458014     -1.75811691134693
  C          -2.65282702138185     -1.17377936743831     -1.47444031139282
  S          -1.03696572590407     -0.57983044324517     -2.03989052956115
  C           4.81455019838425     -2.24901653342474      3.38703604877275
  C           3.34658374027328     -2.34502526219922      3.81814833328851
  C           2.45152123709249     -2.23201379004953      2.61110172169390
  N           2.43768165230859     -3.18768931384206      1.60574120776921
  C           1.53331706150089     -1.28344860783143      2.23849711996400
  C           1.53657184874493     -2.79448778970020      0.68450742457107
  N           0.95534895760210     -1.63837954635408      1.02175314634116
  C           5.60921135352779      3.67428550630927     -0.88895301906241
  C           4.40721451276545      3.81067034119457      0.04999520720518
  C           3.37341380579264      2.77023191755592     -0.29227513167754
  N           2.99342454012213      2.50528081877026     -1.59908578125653
  C           2.62661067082081      1.92460607038031      0.49331509524759
  C           2.06062203621444      1.53511634451340     -1.56240633893171
  N           1.79774203840798      1.14490003426821     -0.31113644904970
  Zn          0.00198395819844     -0.00025508350281      0.00068829917414
  H          -3.60630615588590      0.77200001225614      4.48157082010357
  H          -3.98099891176618      1.60726893641856      2.96238140422960
  H          -2.60756447166371      2.13668892635437      3.94390434229118
  H          -1.45799506384142     -0.05779369515914      3.51629297999110
  H          -2.82554413715978     -0.59073726556853      2.54711885699195
  H          -4.71668152237863     -0.46027959546366     -1.46345853628174
  H          -3.74382856429126      0.13235543279936     -2.82291831730417
  H          -3.49590725566597      0.80098581071611     -1.20144907893391
  H          -2.61346205033111     -1.39456637444007     -0.40651829416944
  H          -2.88169654527232     -2.10111375772169     -2.00360560661030
  H           5.47962818064309     -2.32537933963827      4.25003076692716
  H           5.00537165383030     -1.29615298938242      2.88918561841976
  H           5.07123747152905     -3.05302007101065      2.69409703772482
  H           3.15967651535458     -3.29259317081541      4.33099080864772
  H           3.09036835280154     -1.53826557370531      4.50620740581551
  H           2.98045030291500     -4.03658073163365      1.57185207584791
  H           1.25305043045246     -0.38004663665521      2.75674857106458
  H           1.33029166486537     -3.35156654604749     -0.21623333391050
  H           6.39500809076033      4.38034749746931     -0.61270463998174
  H           5.33454532321297      3.88467955819925     -1.92439994539251
  H           6.02470705594018      2.66565257926489     -0.84222234679557
  H           3.97146527369173      4.81063050839494     -0.03626973670344
  H           4.70184818026670      3.66839552360881      1.09050650641319
  H           3.34476695303268      2.94537201781301     -2.43458812357024
  H           2.63096822413965      1.82787892383711      1.56696523688184
  H           1.58449068765154      1.14151542397246     -2.44720179584289
