47
Coordinates from ORCA-job Cx2Cx7Hx3H-HHHH-1svl-cluster2 E -3371.346374135242
  C          -0.60799999999271      1.72399999921276     -4.22699999977933
  C          -0.34820310711482      1.60659511029877     -2.74416513273380
  S           0.14515615019784     -0.09090659528089     -2.28832908431379
  C          -3.64700000137822     -1.44399999870890     -0.82000000178593
  C          -3.46493208084380      0.05994519419568     -0.87597358876712
  S          -2.47362511592575      0.74017321817552      0.50101188637336
  C           0.29199999992974     -4.29800002259502      4.39000000011571
  C          -0.47478439859087     -4.60771700875016      3.10927932429605
  C          -0.15338039046259     -3.62912714573721      2.04440691076230
  N           0.98830753261827     -3.69128390373411      1.28521473136508
  C          -0.75936837309926     -2.46509442197513      1.67275854536089
  C           1.04774329804617     -2.60600960069280      0.50012694867194
  N          -0.00039726896215     -1.84028130657084      0.71617022622218
  C           0.69800000144119      1.58700002209115      4.60300000144954
  C           0.30085157076180      1.09125293783452      3.22433577246311
  C           1.24368230163786      1.51623419340277      2.15638138240170
  N           1.07410858006389      1.15458519814104      0.83747154373938
  C           2.37472200575806      2.27658036559681      2.24737158652586
  C           2.07389962874518      1.68032663200552      0.15688231513117
  N           2.87744914670475      2.36497223087657      0.97537572441380
  Zn         -0.37995644570492      0.00353174859758     -0.06312753799284
  H          -0.88701049649192      2.74828811549676     -4.49455597252572
  H          -1.41970692482403      1.05970152624314     -4.53412413012415
  H           0.28066351078379      1.45514426086552     -4.80418801047063
  H          -1.24436851390164      1.87218386662589     -2.17844367194084
  H           0.44048583732541      2.30122191169767     -2.44333445946157
  H          -4.26347970226279     -1.79088587662105     -1.65580494413917
  H          -4.13092445819145     -1.74635618525505      0.11192349948181
  H          -2.68047393394653     -1.95108407218263     -0.87578930915023
  H          -4.43621318713136      0.55946173400217     -0.83991274692227
  H          -2.98842951556599      0.34276623326046     -1.81753950752477
  H           0.04966948577087     -5.02120369638464      5.17185179911737
  H           0.04059677825287     -3.30010460330244      4.75543725073460
  H           1.37030854024477     -4.33396216273248      4.21863409438511
  H          -0.24398852566657     -5.62033223644196      2.76609036756328
  H          -1.54963692752619     -4.57047199953932      3.29809235756168
  H           1.67029792763505     -4.43452899034807      1.30567268259945
  H          -1.68002289486193     -2.03288307847873      2.03058229691920
  H           1.84401613007872     -2.41101759544634     -0.20058626651864
  H          -0.02060167295959      1.24995871110460      5.35165768741941
  H           0.73177623226938      2.67868359053545      4.63644564656196
  H           1.68350928953648      1.21119566204582      4.88862223305219
  H           0.23665253263493     -0.00241987783018      3.22154827685011
  H          -0.70390937609962      1.44685032191364      2.97060007383115
  H           2.85697539686887      2.75044166477427      3.08511897102903
  H           2.23221193730839      1.57103122817508     -0.90438348929465
  H           3.71031201268750      2.86096740681912      0.69944023489792
