47
Coordinates from ORCA-job Cx2Cx7Hx3H-HHHH-1svl-cluster2 E -3371.346374135242
C       -0.22804355       1.72046825      -4.16387246 # dw=0.00510
C        0.03175334       1.60306336      -2.68103759
S        0.52511260      -0.09443834      -2.22520155 # dw=0.00249
C       -3.26704356      -1.44753175      -0.75687246
C       -3.08497564       0.05641345      -0.81284605
S       -2.09366867       0.73664147       0.56413942 # dw=0.00253
C        0.67195645      -4.30153177       4.45312754 # dw=0.00754
C       -0.09482795      -4.61124876       3.17240686
C        0.22657606      -3.63265889       2.10753445
N        1.36826398      -3.69481565       1.34834227
C       -0.37941193      -2.46862617       1.73588608
C        1.42769974      -2.60954135       0.56325449
N        0.37955918      -1.84381306       0.77929776 # dw=0.00273
C        1.07795645       1.58346827       4.66612754 # dw=0.00561
C        0.68080802       1.08772119       3.28746331
C        1.62363875       1.51270244       2.21950892
N        1.45406503       1.15105345       0.90059908 # dw=0.00290
C        2.75467845       2.27304862       2.31049912 # dw=0.00341
C        2.45385607       1.67679488       0.22000985
N        3.25740559       2.36144048       1.03850326
Zn       0.00000000       0.00000000       0.00000000
H       -0.50705405       2.74475637      -4.43142843
H       -1.03975048       1.05616978      -4.47099659
H        0.66061996       1.45161251      -4.74106047
H       -0.86441207       1.86865212      -2.11531613
H        0.82044228       2.29769016      -2.38020692
H       -3.88352326      -1.79441763      -1.59267741
H       -3.75096801      -1.74988793       0.17505104
H       -2.30051749      -1.95461582      -0.81266177
H       -4.05625674       0.55592999      -0.77678521
H       -2.60847307       0.33923448      -1.75441197
H        0.42962593      -5.02473544       5.23497934
H        0.42055322      -3.30363635       4.81856479
H        1.75026499      -4.33749391       4.28176163
H        0.13596792      -5.62386399       2.82921791
H       -1.16968048      -4.57400375       3.36121990
H        2.05025437      -4.43806074       1.36880022
H       -1.30006645      -2.03641483       2.09370983
H        2.22397258      -2.41454934      -0.13745873
H        0.35935477       1.24642696       5.41478523
H        1.11173268       2.67515184       4.69957318
H        2.06346574       1.20766391       4.95174977
H        0.61660898      -0.00595163       3.28467581
H       -0.32395293       1.44331857       3.03372761
H        3.23693184       2.74690992       3.14824651
H        2.61216838       1.56749948      -0.84125595
H        4.09026846       2.85743566       0.76256777
