47
Coordinates from ORCA-job Hx56Hx1Cx3C-HHLH-1ia9-cluster1-H-only E -3371.333873776814
  C          -1.45199777920082     -3.66743906979367     -3.34396265192482
  C          -0.86901375814676     -2.56754817302681     -2.43510037060544
  C          -1.53346910617875     -1.23182776250229     -2.58553665406161
  N          -1.04564742410402     -0.10500974637702     -1.96062692936859
  C          -2.63855622295105     -0.90194401411829     -3.30199612706792
  C          -1.85667510472687      0.87576069805808     -2.30572464948459
  N          -2.83476880827172      0.44342292633061     -3.11776144611075
  C          -3.78093384455561     -3.04640459375137      4.35423036192443
  C          -3.82195201661263     -3.01738015399288      2.82323849667557
  C          -2.54777514053976     -2.53036635432444      2.20503396141747
  N          -1.31937549320053     -3.12675168756950      2.40058661598257
  C          -2.31501164036596     -1.46319202595028      1.40015875006848
  C          -0.40396552631546     -2.41833377120719      1.72448111511266
  N          -0.96713748591312     -1.40005493971947      1.10218732174198
  C           0.91127369122288      1.18581473107330      2.87016230767796
  C           0.45425011342395      2.41585272274102      2.08365357384953
  S          -0.85900810439303      2.08464722196736      0.85177989136680
  C           3.92139043833341      1.37306529802056     -1.65803981049395
  C           2.79899261419032      1.28913851054361     -0.63120953303679
  S           2.28422537887299     -0.38993000428770     -0.18673049422180
  Zn          0.00082462892179     -0.00598773978750     -0.00141359630680
  H          -0.92065281193174     -4.60619786830766     -3.18240912511247
  H          -1.35715702906117     -3.39522235382003     -4.39748092153672
  H          -2.51003551920316     -3.83366850332532     -3.12884745390214
  H           0.19944132191314     -2.44570350561018     -2.63927431738419
  H          -0.94021910972275     -2.88051154099356     -1.38792767801777
  H          -3.28643887122328     -1.49219565116148     -3.92762594152728
  H          -1.77309813206307      1.89849308416328     -1.97108093825825
  H          -3.56065539440502      1.01089036738891     -3.52523581504384
  H          -4.73724228606809     -3.39153561458557      4.75143086669277
  H          -3.58012037463109     -2.05070470540379      4.75543420319531
  H          -3.00327408726685     -3.72219622601175      4.71686304073251
  H          -4.04912756550116     -4.01944832093655      2.44482660423447
  H          -4.62118539543802     -2.35897477088433      2.47810774010024
  H          -1.13344720030917     -3.94748484727177      2.95591951081092
  H          -3.01443699102134     -0.73572726493609      1.02169446268957
  H           0.64639729501476     -2.66352863765261      1.70376364474901
  H           1.63810493451943      1.47728023671956      3.63612727145996
  H           1.38712768791777      0.45632450394157      2.21321029048534
  H           0.06432428078408      0.70741375111413      3.36855816856405
  H           0.06066278958433      3.17068331093468      2.76895929022023
  H           1.31015998612952      2.86132050676423      1.57201998931051
  H           4.18441939033454      2.41889218578644     -1.84069421110509
  H           3.62005527876761      0.92257864350160     -2.60712056828047
  H           4.81708393603046      0.85284863806801     -1.30815215866511
  H           1.93007519410767      1.83445687602089     -1.00536839671814
  H           3.11282426325334      1.80107463417131      0.28269130917216
