47
Coordinates from ORCA-job Cx2Cx12Hx3H-LLHH-1a1g-cluster2 E -3371.344616322976
  C          -2.05500000070006     -3.86699999944113      0.55899999973100
  C          -1.36418107995518     -2.52737540160492      0.70771485741538
  S          -0.47178183578754     -2.04972787324889     -0.81446449062780
  C           3.35499999641887     -1.78299999844378      1.10100000070788
  C           3.23373973103198     -0.27267609413430      1.05726753523889
  S           1.62980423321280      0.36535739629958      1.66128801184404
  C          -5.21599999546385      3.37199999654295     -1.21299999828045
  C          -4.97042949452418      2.12147686586260     -0.37356228939059
  C          -3.53994450523743      1.89437370160614     -0.04442495796577
  N          -2.80542574645916      2.73716675112940      0.75395916778977
  C          -2.66546298400799      0.91093897751337     -0.40835293532590
  C          -1.55455998667685      2.26370035067427      0.85311379621951
  N          -1.43669743708887      1.15334805222932      0.15681178896020
  C           1.08399999974504      3.25100000134196     -5.70800000215844
  C           1.61218807660060      1.87741490287768     -5.30664707452121
  C           1.55368310628476      1.63579593136147     -3.84336159864785
  N           2.27926501226757      2.36368909180323     -2.93200354231451
  C           0.82939563055227      0.75743965509627     -3.08990220539357
  C           1.99040716075430      1.92880996032806     -1.69760889002555
  N           1.11163568443466      0.95143154280654     -1.75922541101554
  Zn          0.25782597840415      0.02087586916626     -0.14671009589315
  H          -2.57984007324321     -4.13539871160054      1.48098290718059
  H          -1.33340200616847     -4.65719829895609      0.33656058641363
  H          -2.78593617049860     -3.84190519258990     -0.25318890070821
  H          -2.09692173463386     -1.75098189191812      0.94157864472777
  H          -0.65211584513472     -2.55935474215321      1.53617353997428
  H           4.34135088471587     -2.10145613632938      0.74793641998347
  H           2.59745949898482     -2.25187886530709      0.46819077863946
  H           3.21958624514607     -2.15558554100338      2.11920358752411
  H           3.39593932171159      0.08841298459421      0.03921520724771
  H           4.00502849053992      0.18321944901374      1.68287398305964
  H          -6.28088827729751      3.48362525090196     -1.42563589766631
  H          -4.68004372747358      3.31402246527667     -2.16291700680136
  H          -4.88158721032008      4.27102944277644     -0.69002084570541
  H          -5.32865711109084      1.23774492225690     -0.90572948222222
  H          -5.54855419243127      2.18463749935294      0.55438330388635
  H          -3.14820509970303      3.57273815184532      1.20282089031399
  H          -2.83534380517241      0.04636071733179     -1.03043498437180
  H          -0.77374715658856      2.73909172455331      1.42544043616986
  H           1.14451817328830      3.38164690657285     -6.79013323682032
  H           1.66520522346918      4.04909442354804     -5.24033021246596
  H           0.04135593417108      3.36979406246394     -5.40525701439412
  H           2.64516664589322      1.76552391312264     -5.65242806525097
  H           1.03051745295297      1.09298349297585     -5.79512504172777
  H           2.92829188998111      3.10422915078904     -3.15027429205529
  H           0.12831902783286      0.00655173103701     -3.41786850953456
  H           2.42276410894941      2.33173281895931     -0.79529851847421
