47
Coordinates from ORCA-job Cx4Cx76Hx4H-HLHH-1pi1-cluster1 E -3371.344395610175
C        1.68643963      -2.41519753       2.20843031
C        0.53262403      -1.58074702       2.72742117
S        0.58723872       0.17213872       2.21065028 # dw=0.00255
C        3.73143964       1.34280247      -2.45056969 # dw=0.00495
C        2.66399850       1.23754895      -1.38013910
S        1.48536087      -0.10701224      -1.75071709 # dw=0.00254
C       -5.59956037       3.33280247      -0.83456969
C       -4.34806578       3.65849791      -0.02332971 # dw=0.00412
C       -3.16385623       2.83343080      -0.37863710
N       -2.57546001       2.85352911      -1.61997056
C       -2.41965525       1.94319146       0.34282198
C       -1.53229075       2.01176260      -1.62239525
N       -1.40956907       1.44066542      -0.44313285 # dw=0.00291
C       -4.77756037      -3.93919754      -1.60156969 # dw=0.00708
C       -4.13382622      -3.83011520      -0.22343885
C       -2.81882258      -3.14686067      -0.27496725 # dw=0.00328
N       -1.69840825      -3.71798529      -0.82581388
C       -2.43014102      -1.88830801       0.08191174
C       -0.69579893      -2.82874458      -0.79291940
N       -1.10985206      -1.70498619      -0.24853778 # dw=0.00281
Zn       0.00000000       0.00000000       0.00000000
H        1.60557301      -3.44936233       2.55904322
H        2.64367994      -2.01175953       2.54757679
H        1.69631413      -2.42533704       1.11561369
H       -0.41714657      -2.01039812       2.40246277
H        0.53037606      -1.58194502       3.82020115
H        4.43369814       2.14968330      -2.21929572
H        3.28599709       1.54945898      -3.42691718
H        4.29792769       0.41151037      -2.53039844
H        2.11466893       2.17894201      -1.30381447
H        3.12094694       1.04911627      -0.40565154
H       -6.42879478       3.97041934      -0.52272940
H       -5.89498196       2.29082795      -0.69293241
H       -5.43391441       3.49568496      -1.90212637
H       -4.54324429       3.50919026       1.04072215
H       -4.09795743       4.71736136      -0.14979973
H       -2.86889502       3.41577376      -2.40416285
H       -2.54362057       1.63820398       1.36972903
H       -0.89327388       1.83542129      -2.47339164
H       -5.74370385      -4.44386073      -1.53607902
H       -4.14541293      -4.50903736      -2.28641258
H       -4.93618741      -2.94841980      -2.03274602
H       -4.01463684      -4.82715023       0.21196000
H       -4.78112883      -3.26451671       0.44988122
H       -1.63491447      -4.65372288      -1.19677868
H       -3.01400201      -1.10908048       0.54513912
H        0.29782173      -3.02430315      -1.16342493
