47
Coordinates from ORCA-job Cx4Cx76Hx4H-HLHH-1pi1-cluster1 E -3371.344395610175
  C           1.78700000023715     -2.55600000058365      2.03200000064524
  C           0.63318440150782     -1.72154948761946      2.55099086041177
  S           0.68779909070041      0.03133625545703      2.03421997099220
  C           3.83200000549823      1.20200000150919     -2.62700000116267
  C           2.76455887334817      1.09674648061817     -1.55656941244757
  S           1.58592123719408     -0.24781470305409     -1.92714740361655
  C          -5.49900000293612      3.19200000123768     -1.01099999964217
  C          -4.24750541415182      3.51769544070108     -0.19976002013351
  C          -3.06329586091126      2.69262833613671     -0.55506740579989
  N          -2.47489963755789      2.71272664650671     -1.79640087043147
  C          -2.31909488508681      1.80238899346151      0.16639167293678
  C          -1.43173037883558      1.87096012997047     -1.79882555805888
  N          -1.30900869832629      1.29986295001781     -0.61956316040559
  C          -4.67700000279926     -4.08000000216322     -1.77799999984040
  C          -4.03326584898632     -3.97091766363848     -0.39986915891910
  C          -2.71826220933261     -3.28766314069917     -0.45139756023325
  N          -1.59784787990818     -3.85878775919169     -1.00224418606047
  C          -2.32958065592324     -2.02911047765604     -0.09451857074219
  C          -0.59523856085254     -2.96954704681839     -0.96934970905158
  N          -1.00929169303218     -1.84578865972009     -0.42496809086045
  Zn          0.10056036870720     -0.14080246622035     -0.17643030992486
  H           1.70613337880409     -3.59016479133512      2.38261290669637
  H           2.74424030728793     -2.15256199497955      2.37114648371824
  H           1.79687449500858     -2.56613950973309      0.93918337635943
  H          -0.31658620028954     -2.15120058590766      2.22603245999698
  H           0.63093643141009     -1.72274748569301      3.64377084023467
  H           4.53425851312501      2.00888083213628     -2.39572603139778
  H           3.38655745632710      1.40865651375849     -3.60334749371483
  H           4.39848805855279      0.27070790612908     -2.70682874997972
  H           2.21522929719710      2.03813954465247     -1.48024478471902
  H           3.22150730519555      0.90831380640405     -0.58208184988535
  H          -6.32823440759973      3.82961686901656     -0.69915970668659
  H          -5.79442159197556      2.15002548052995     -0.86936272431348
  H          -5.33335404588421      3.35488249505339     -2.07855668361816
  H          -4.44268391640653      3.36838779844127      0.86429183678357
  H          -3.99739706376574      4.57655889504430     -0.32623004119652
  H          -2.76833464799129      3.27497129658376     -2.58059315946829
  H          -2.44306020012720      1.49740151844063      1.19329871950693
  H          -0.79271351055536      1.69461882722761     -2.64982195465534
  H          -5.64314347782154     -4.58466320009321     -1.71250932542214
  H          -4.04485256470895     -4.64983982356858     -2.46284288887877
  H          -4.83562703974334     -3.08922226768751     -2.20917633257829
  H          -3.91407647190704     -4.96795269300375      0.03552968766932
  H          -4.68056846339204     -3.40531917593566      0.27345090795426
  H          -1.53435409637054     -4.79452534724323     -1.37320899316242
  H          -2.91344163804791     -1.24988294489855      0.36870880603790
  H           0.39838209806055     -3.16510561373776     -1.33985524220113
