47
Coordinates from ORCA-job 1clc-2delta-charge--1 E -3371.379889964770
  C          -2.04138073839600     -2.40790220728735     -1.89670162362504
  C          -2.55757979816744     -1.34937031620987     -0.94299144602145
  S          -1.68449943178919     -1.33163564664113      0.66048189194826
  C           4.16804105017263     -0.60141599539623      0.45821901539656
  C           3.34810102400133     -0.27755146522623     -0.77491200051638
  S           1.87606854703892     -1.34266349612603     -0.97202299777725
  C           1.42055812062692     -2.49556426795949      2.92841704091671
  C           0.66244093457551     -1.31302321604894      3.52107367617912
  C           1.23364572579103      0.00599060042467      3.13906669692851
  N           1.07564482953829      0.55574575744975      1.88580933792312
  C           1.98672395346089      0.86299122003650      3.89058445347640
  C           1.71101515039027      1.71151981835521      1.88492038417339
  N           2.27970878125178      1.92729511528252      3.07727477761883
  Zn          0.22159052465547     -0.12032701777251      0.10016619301178
  H          -2.58689382065150     -2.38005934988113     -2.84622751231197
  H          -2.15385206332387     -3.40617808893707     -1.46661451023637
  H          -0.98029527640421     -2.25398955390186     -2.10913223948484
  H          -3.61730350796192     -1.51804413603608     -0.73525206364857
  H          -2.47327262208071     -0.35864007785096     -1.39722068621346
  H           5.04719946092723      0.04893415295784      0.52290685077362
  H           4.51331082181473     -1.63809565169927      0.43445732204777
  H           3.57698030909405     -0.46626108011519      1.36613205484791
  H           3.02502790503147      0.76618871544374     -0.74815465956768
  H           3.96177557187157     -0.39578482763797     -1.67187811836612
  H           0.95467579796392     -3.43836084127071      3.22434352261491
  H           2.45799470815218     -2.50312833538349      3.27209511886917
  H           1.42775165412486     -2.44338733382476      1.83753246163085
  H          -0.38197696602228     -1.35273491828882      3.19624651015295
  H           0.65947909105932     -1.38250199827205      4.61174251492922
  H           2.32583686415268      0.80906038597715      4.91161672812267
  H           1.75630154874850      2.39739613723484      1.05538026279878
  H           2.81267062566293      2.74285646170044      3.33406506005316
  H          -1.43476023355452      4.55989043455664     -0.32847694105527
  N          -1.38728153319075      3.63384799461321     -0.72896886451511
  C          -0.63619937910553      3.48053925988069     -1.90984021478025
  H          -1.01043804856542      1.12363447880085     -4.22899630942158
  H          -0.54725406945344     -0.16726630509460     -3.11297151680679
  H          -0.68308637301773      4.19876920485402     -2.71441683061876
  C          -0.15965906734472      0.61464303336540     -3.76875665310888
  C          -0.03435681425559      2.26292127656723     -1.87237800625203
  H           0.41823405347169      0.13099309554053     -4.56087429983629
  C           0.70226840548204      1.59900222299612     -2.98476599964882
  H           1.08192236735171      2.36941591392275     -3.66213831711304
  H           1.56515496372979      1.06426806852241     -2.57838788851479
  C          -0.95109950082376      2.57807635544156      0.13308962427258
  N          -0.27001431273652      1.65291163690221     -0.66585334672269
  H          -1.68022923329668      2.18559478603540      0.84630154747717
