47
Coordinates from ORCA-job Cx18Cx4Hx55H-LSSL-1eh6-cluster1 E -3371.344275008703
  C          -0.06899999967800     -4.48599999961780      1.29899999982813
  C          -0.91514193177531     -3.30653452851713      0.86898924453785
  S          -0.52666014393371     -1.79582231171741      1.82264516186321
  C           4.28099999792293     -1.52499999820133     -1.41499999995759
  C           3.02916058912083     -1.52861127162579     -0.55855225291817
  S           1.56416085393909     -0.95614781368836     -1.49409563773790
  C           3.00399998587165      5.24299999589189      1.10699998972624
  C           3.54985878751685      3.91639054118856      1.62366433715822
  C           2.50664291326080      2.86377517982651      1.65804063231957
  N           1.53025824230506      2.80128736932034      2.62131787326862
  C           2.20940392539717      1.85295244473184      0.79193975307354
  C           0.69672588569087      1.79193964069785      2.33095341627317
  N           1.08233998347716      1.19830619484454      1.22153938244284
  C          -1.13199998411658      4.12400000192724     -1.89899998959678
  C          -0.66736632753804      2.83126477301962     -1.25126070874698
  C          -1.72595833479565      1.78805989723674     -1.18847184517759
  N          -1.51455073645212      0.54521681493812     -0.62772579482823
  C          -3.01989411083488      1.84341883326190     -1.62279893042695
  C          -2.64825665918761     -0.12242608647139     -0.72329457200274
  N          -3.57731721950485      0.62896139220031     -1.31970189211947
  Zn          0.16452722929515     -0.31777131174449      0.20717113838961
  H          -0.34196985454262     -5.38684578406029      0.73923100438142
  H          -0.20183837611203     -4.69498711601500      2.36350306291680
  H           0.99146071701870     -4.28524827942808      1.12670341412496
  H          -1.97520947488454     -3.53296175203298      1.00736297913752
  H          -0.76417804020763     -3.10138865761282     -0.19277434256386
  H           5.13990071699733     -1.89034562635119     -0.84372620205210
  H           4.50903150463040     -0.51600257541362     -1.76739629001113
  H           4.15797037446190     -2.16712452365008     -2.29090980168052
  H           3.16841934023745     -0.88041901691861      0.30955865385124
  H           2.83186284604802     -2.53457383064589     -0.18065499537669
  H           3.78814269766678      6.00290110134049      1.09077867174092
  H           2.19334628289094      5.60714090810591      1.74238760278768
  H           2.61381052854825      5.13035496951752      0.09303595723364
  H           3.97272189234729      4.04959926103169      2.62394761426233
  H           4.35995764578922      3.56888456528254      0.97920254032397
  H           1.45278024282449      3.40820519194259      3.42328495504058
  H           2.71699284409906      1.56114261717948     -0.11374590142401
  H          -0.15654850790108      1.52288815744119      2.93303219657262
  H          -0.31948842647460      4.85219069937625     -1.91700882986304
  H          -1.96644181249284      4.56399355695047     -1.34752660742381
  H          -1.45923916882749      3.95849276177167     -2.92838615582630
  H           0.19652558669017      2.42659760666036     -1.79008534211600
  H          -0.31141275565681      3.03221348719764     -0.23622635324024
  H          -3.58208761763280      2.62405539528868     -2.10593565599042
  H          -2.81845972322143     -1.12695308972236     -0.36991893115183
  H          -4.52646688307520      0.34750573982429     -1.50820762617525
