47
Coordinates from ORCA-job Cx2Cx35Hx54H-LLLL-1z84-cluster2 E -3371.346731097379 | rotated RESSEQ=4 alpha=20.000 beta=0.000 gamma=0.000
 C      -3.42400000      -0.56700000       2.92200000   # RES=CYS RESSEQ=1 ATOM=CA
 C      -2.00521263      -0.60855624       2.39083253   # RES=CYS RESSEQ=1 ATOM=CB
 S      -1.56618136       0.92674131       1.50035470   # RES=CYS RESSEQ=1 ATOM=SG
 C      -2.96100000      -0.63600000      -2.37900000   # RES=CYS RESSEQ=2 ATOM=CA
 C      -2.47763398      -1.56331840      -1.28378643   # RES=CYS RESSEQ=2 ATOM=CB
 S      -0.66094414      -1.72414951      -1.20645021   # RES=CYS RESSEQ=2 ATOM=SG
 C       3.11400000      -1.21600000      -1.85700000   # RES=HIS RESSEQ=3 ATOM=CA
 C       2.85347548      -1.93983437      -0.54069877   # RES=HIS RESSEQ=3 ATOM=CB
 C       2.81496500      -1.04438913       0.64668359   # RES=HIS RESSEQ=3 ATOM=CG
 N       1.75204183      -0.21337731       0.93967389   # RES=HIS RESSEQ=3 ATOM=N
 C       3.75778578      -0.88583705       1.62190818   # RES=HIS RESSEQ=3 ATOM=C
 C       2.05010539       0.41734417       2.05931688   # RES=HIS RESSEQ=3 ATOM=C
 N       3.25426798       0.03904109       2.49715712   # RES=HIS RESSEQ=3 ATOM=N
 C       3.23029930       3.36703058       0.35464590   # RES=HIS RESSEQ=4 ATOM=CA
 C       1.71056172       3.24549284       0.29705748   # RES=HIS RESSEQ=4 ATOM=CB
 C       1.18019077       2.86915772      -1.04516060   # RES=HIS RESSEQ=4 ATOM=CG
 N       0.46068001       1.71479631      -1.27727095   # RES=HIS RESSEQ=4 ATOM=N
 C       1.27239381       3.55256478      -2.22565170   # RES=HIS RESSEQ=4 ATOM=C
 C       0.12802103       1.71080623      -2.55463122   # RES=HIS RESSEQ=4 ATOM=C
 N       0.60409673       2.80430742      -3.15617638   # RES=HIS RESSEQ=4 ATOM=N
Zn      -0.04040902       0.14690840      -0.02993086   # RES=HIS RESSEQ=0
 H      -3.65773960      -1.48247174       3.47456938   # RES=CYS RESSEQ=1
 H      -4.14239952      -0.46878282       2.10425651   # RES=CYS RESSEQ=1
 H      -3.56546372       0.28120140       3.59681626   # RES=CYS RESSEQ=1
 H      -1.29886898      -0.74872896       3.21294896   # RES=CYS RESSEQ=1
 H      -1.87904575      -1.45393676       1.71063617   # RES=CYS RESSEQ=1
 H      -4.05525471      -0.59979048      -2.40289754   # RES=CYS RESSEQ=2
 H      -2.60819914      -0.96740518      -3.35866653   # RES=CYS RESSEQ=2
 H      -2.59154945       0.37982404      -2.21504134   # RES=CYS RESSEQ=2
 H      -2.87556634      -2.56921095      -1.43902572   # RES=CYS RESSEQ=2
 H      -2.83797099      -1.21590370      -0.31320792   # RES=CYS RESSEQ=2
 H       3.10712697      -1.92203625      -2.69002211   # RES=HIS RESSEQ=3
 H       4.08413695      -0.71352115      -1.84078652   # RES=HIS RESSEQ=3
 H       2.34634017      -0.46344420      -2.04603745   # RES=HIS RESSEQ=3
 H       3.63153902      -2.68866258      -0.37284869   # RES=HIS RESSEQ=3
 H       1.90330964      -2.47867095      -0.60535579   # RES=HIS RESSEQ=3
 H       4.71878833      -1.35062778       1.76586721   # RES=HIS RESSEQ=3
 H       1.41495284       1.12655882       2.56599860   # RES=HIS RESSEQ=3
 H       3.70534464       0.37444183       3.33365286   # RES=HIS RESSEQ=3
 H       3.55318331       3.65088027       1.35851919   # RES=HIS RESSEQ=4
 H       3.59085519       4.12455762      -0.34476073   # RES=HIS RESSEQ=4
 H       3.70707109       2.41740023       0.09893457   # RES=HIS RESSEQ=4
 H       1.36276759       2.50312914       1.01874956   # RES=HIS RESSEQ=4
 H       1.26308059       4.19699440       0.60108170   # RES=HIS RESSEQ=4
 H       1.73988314       4.49063210      -2.47422592   # RES=HIS RESSEQ=4
 H      -0.44398727       0.94251083      -3.05010997   # RES=HIS RESSEQ=4
 H       0.48367611       3.03640243      -4.12973535   # RES=HIS RESSEQ=4
