47
Coordinates from ORCA-job Cx2Cx35Hx54H-LLLL-1z84-cluster2 E -3371.346731097379 | rotated RESSEQ=4 alpha=10.000 beta=0.000 gamma=0.000
C       -3.38359098      -0.71390840       2.95193086 # RES=CYS RESSEQ=1 ATOM=CA dw=0.00559
C       -1.96480361      -0.75546464       2.42076339 # RES=CYS RESSEQ=1 ATOM=CB
S       -1.52577234       0.77983291       1.53028556 # RES=CYS RESSEQ=1 ATOM=SG dw=0.00255
C       -2.92059098      -0.78290840      -2.34906914 # RES=CYS RESSEQ=2 ATOM=CA dw=0.01036
C       -2.43722496      -1.71022680      -1.25385557 # RES=CYS RESSEQ=2 ATOM=CB
S       -0.62053512      -1.87105791      -1.17651935 # RES=CYS RESSEQ=2 ATOM=SG dw=0.00254
C        3.15440902      -1.36290840      -1.82706914 # RES=HIS RESSEQ=3 ATOM=CA dw=0.01132
C        2.89388450      -2.08674277      -0.51076791 # RES=HIS RESSEQ=3 ATOM=CB
C        2.85537402      -1.19129753       0.67661445 # RES=HIS RESSEQ=3 ATOM=CG
N        1.79245085      -0.36028571       0.96960475 # RES=HIS RESSEQ=3 ATOM=N dw=0.00296
C        3.79819480      -1.03274545       1.65183904 # RES=HIS RESSEQ=3 ATOM=C
C        2.09051441       0.27043577       2.08924774 # RES=HIS RESSEQ=3 ATOM=C
N        3.29467700      -0.10786731       2.52708798 # RES=HIS RESSEQ=3 ATOM=N
C        2.84368036       3.56509923       0.64665952 # RES=HIS RESSEQ=4 ATOM=CA dw=0.00978
C        1.36579844       3.27867868       0.39863036 # RES=HIS RESSEQ=4 ATOM=CB
C        1.06135969       2.80045646      -0.98089542 # RES=HIS RESSEQ=4 ATOM=CG
N        0.50108903       1.56788791      -1.24734009 # RES=HIS RESSEQ=4 ATOM=N dw=0.00291
C        1.24073485       3.44787963      -2.17159843 # RES=HIS RESSEQ=4 ATOM=C
C        0.34483195       1.48318399      -2.55529122 # RES=HIS RESSEQ=4 ATOM=C
N        0.78311757       2.59975525      -3.14301889 # RES=HIS RESSEQ=4 ATOM=N
Zn       0.00000000       0.00000000       0.00000000 # RES=HIS RESSEQ=0
H       -3.61733058      -1.62938014       3.50450024 # RES=CYS RESSEQ=1
H       -4.10199050      -0.61569122       2.13418737 # RES=CYS RESSEQ=1
H       -3.52505470       0.13429300       3.62674712 # RES=CYS RESSEQ=1
H       -1.25845996      -0.89563736       3.24287982 # RES=CYS RESSEQ=1
H       -1.83863673      -1.60084516       1.74056703 # RES=CYS RESSEQ=1
H       -4.01484569      -0.74669888      -2.37296668 # RES=CYS RESSEQ=2
H       -2.56779012      -1.11431358      -3.32873567 # RES=CYS RESSEQ=2
H       -2.55114043       0.23291564      -2.18511048 # RES=CYS RESSEQ=2
H       -2.83515732      -2.71611935      -1.40909486 # RES=CYS RESSEQ=2
H       -2.79756197      -1.36281210      -0.28327706 # RES=CYS RESSEQ=2
H        3.14753599      -2.06894465      -2.66009125 # RES=HIS RESSEQ=3
H        4.12454597      -0.86042955      -1.81085566 # RES=HIS RESSEQ=3
H        2.38674919      -0.61035260      -2.01610659 # RES=HIS RESSEQ=3
H        3.67194804      -2.83557098      -0.34291783 # RES=HIS RESSEQ=3
H        1.94371866      -2.62557935      -0.57542493 # RES=HIS RESSEQ=3
H        4.75919735      -1.49753618       1.79579807 # RES=HIS RESSEQ=3
H        1.45536186       0.97965042       2.59592946 # RES=HIS RESSEQ=3
H        3.74575366       0.22753343       3.36358372 # RES=HIS RESSEQ=3
H        2.99839694       3.91719149       1.66875546 # RES=HIS RESSEQ=4
H        3.21551292       4.33197855      -0.03646131 # RES=HIS RESSEQ=4
H        3.44485293       2.66392551       0.50183247 # RES=HIS RESSEQ=4
H        1.00200980       2.52902294       1.10473105 # RES=HIS RESSEQ=4
H        0.78683007       4.18656447       0.59500837 # RES=HIS RESSEQ=4
H        1.63910549       4.42150555      -2.40324280 # RES=HIS RESSEQ=4
H       -0.07414847       0.64081751      -3.08240091 # RES=HIS RESSEQ=4
H        0.77123832       2.78315356      -4.13418499 # RES=HIS RESSEQ=4
