37
Coordinates from ORCA-job Cx2Cx2Cx7C-LLLL-1axe-cluster2-H-only E -3776.418686146181
C       -1.54896093      -1.28234090       3.40742070 # dw=0.00178
C       -1.34512196       0.22779989       3.16299591
S       -1.56777463       0.83807465       1.42563340 # dw=0.00265
N       -2.77926625      -2.33267013       1.59681902
C       -2.95494701       2.38319434      -2.19596127 # dw=0.01271
C       -1.53414514       2.71843958      -1.76963667
S       -0.35537603       1.37569751      -2.03915307 # dw=0.00973
C       -1.34236429      -2.68385199      -3.33414421 # dw=0.00770
C       -1.83202314      -2.35931307      -1.92501586
S       -0.51078879      -2.05918415      -0.74691127 # dw=0.00249
C        3.75929313      -0.28179580      -0.99118377 # dw=0.01597
C        3.24528255      -0.80946281       0.35252254
S        1.75544046       0.07353621       0.96022665 # dw=0.00143
Zn       0.00000000       0.00000000       0.00000000
H       -1.12493859      -1.46260928       4.40954444
H       -0.99094158      -1.89963058       2.72114212
H       -2.58554424      -1.55821030       3.48033554
H       -2.04209138       0.80136542       3.77713562
H       -0.33430267       0.50525971       3.46753252
H       -3.64295815      -2.00645273       2.02162018
H       -2.28625369      -1.49967319       1.28205206
H       -3.09007103      -2.76277336       0.72372599
H       -3.62709672       3.23254848      -2.03100409
H       -3.33572296       1.53072673      -1.62677725
H       -2.99108989       2.11921893      -3.25618984
H       -1.52770418       2.98905589      -0.71008535
H       -1.18813395       3.59710757      -2.32234188
H       -2.18454929      -2.90035742      -3.99993513
H       -0.68088657      -3.55373691      -3.32265375
H       -0.78303615      -1.84186022      -3.74932734
H       -2.43780802      -3.18959150      -1.55044124
H       -2.49033698      -1.48477386      -1.96402112
H        4.66217667      -0.81884825      -1.29896395
H        3.99606447       0.78234411      -0.92282316
H        3.00109100      -0.41119079      -1.76716057
H        4.00337355      -0.68574894       1.12760948
H        3.02045469      -1.87555524       0.27520643
