37
Coordinates from ORCA-job Cx2Cx2Cx7C-LLLL-1axe-cluster2-H-only E -3776.418686146181
  C          -1.51839113113910     -1.33494645570753      3.42517151195799
  C          -1.31455215286321      0.17519433080507      3.18074672784049
  S          -1.53720482489596      0.78546909798837      1.44338421635638
  N          -2.74869644401047     -2.38527568197634      1.61456983933888
  C          -2.92437721042720      2.33058878553750     -2.17821044934324
  C          -1.50357533648516      2.66583402588816     -1.75188584993847
  S          -0.32480622353876      1.32309194880536     -2.02140225660474
  C          -1.31179448844772     -2.73645754955337     -3.31639339117845
  C          -1.80145333593154     -2.41191862752117     -1.90726504307671
  S          -0.48021898518885     -2.11178970854137     -0.72916045412370
  C           3.78986293503630     -0.33440135914270     -0.97343295681549
  C           3.27585235062517     -0.86206836890006      0.37027335268601
  S           1.78601026262293      0.02093064917241      0.97797746457497
  Zn          0.03056980223684     -0.05260555695319      0.01775081597016
  H          -1.09436878667813     -1.51521483783274      4.42729525410800
  H          -0.96037178273808     -1.95223614124869      2.73889294018708
  H          -2.55497443575109     -1.61081585845976      3.49808635272702
  H          -2.01152157536330      0.74875986743900      3.79488643575160
  H          -0.30373287261619      0.45265415424126      3.48528333541327
  H          -3.61238834923931     -2.05905828392014      2.03937099809056
  H          -2.25568388844379     -1.55227874432460      1.29980287270810
  H          -3.05950123119440     -2.81537891970877      0.74147680116185
  H          -3.59652691647092      3.17994292771046     -2.01325327082909
  H          -3.30515315815857      1.47812117160460     -1.60902643211024
  H          -2.96052008390644      2.06661337572174     -3.23843902327175
  H          -1.49713438271400      2.93645033678524     -0.69233453831452
  H          -1.15756414918813      3.54450200845285     -2.30459106174976
  H          -2.15397948983090     -2.95296297228148     -3.98218431296872
  H          -0.65031676821755     -3.60634246986752     -3.30490293696210
  H          -0.75246634960679     -1.89446577963893     -3.73157652029596
  H          -2.40723821348531     -3.24219705438402     -1.53269042121072
  H          -2.45976717862466     -1.53737941939122     -1.94627030533693
  H           4.69274647312598     -0.87145380310808     -1.28121313750344
  H           4.02663427618650      0.72973855129445     -0.90507234289766
  H           3.03166080533780     -0.46379634416276     -1.74940975508559
  H           4.03394335194286     -0.73835449589520      1.14536029515106
  H           3.05102448804120     -1.92816079892678      0.29295724559384
