33
Coordinates from ORCA-job Cx4C-Cx4C-LL-LL-1d0c-cluster1-H-only E -3719.902807662735
  C           4.71684065582168     -0.08577212774389     -0.57828283428927
  C           3.29085269783160     -0.66332817198424     -0.57132873994575
  S           2.07903316026283      0.58780527059796     -1.06979691066382
  C           1.89500725880819      1.95097757361286      2.57262723346915
  C           0.42341234192725      1.61383217892323      2.75612487229073
  S          -0.64212142384038      1.80591377659424      1.30166158507953
  C           1.29445601410185     -4.29401894610434      1.50932134427603
  C           1.40205368414590     -2.78257365335637      1.30948674158975
  S          -0.16039536159731     -1.87190115643920      1.31162749256029
  C          -0.66150686925155     -2.73407787647498     -2.42380330480542
  C          -0.64595764101790     -1.26390834811004     -2.85356926363551
  S          -1.60319388198953     -0.16824361490267     -1.77571835957872
  Zn         -0.00506440985423      0.00636453080500     -0.00389495253586
  H           5.44772802170688     -0.84576229923877     -0.28300992304960
  H           4.78798768500844      0.75199337720378      0.11930913924770
  H           4.98572706093158      0.27954011425651     -1.57292996773442
  H           3.23380566125700     -1.53522421214552     -1.22814383938166
  H           3.06296827298022     -0.99477511941584      0.43957103276600
  H           2.43856860126711      1.80420464813847      3.51163915846835
  H           2.02551127554417      2.99097087770632      2.26036797545631
  H           2.34281349790414      1.31795251884186      1.80308501560122
  H           0.33610569829937      0.57629957927136      3.09334978723974
  H           0.00263658064183      2.24050266564478      3.54800378745938
  H           2.29082295256147     -4.74530653305229      1.49479919149686
  H           0.69797667067521     -4.74883106611108      0.71418605974048
  H           0.82285126960630     -4.54041976535950      2.46496437050915
  H           2.06440026808351     -2.36442838800906      2.07302189411335
  H           1.88678774775026     -2.61500030920825      0.34929525151407
  H          -0.06010890193041     -3.34372448250601     -3.10695983592676
  H          -1.68177278925722     -3.12685597890685     -2.42022191987328
  H          -0.26076456472303     -2.83593701240030     -1.41291515271038
  H          -1.04270775995141     -1.17519650354099     -3.86932268904873
  H           0.38539352629617     -0.89991454658616     -2.87280823969889
