47
Coordinates from ORCA-job Cx17CHx22H-LLLL-1clc-cluster1 E -3371.344831727909
C       -1.85752821      -1.96029956      -2.46732666
C       -2.35036090      -1.96511648      -1.03439200
S       -1.02697240      -2.04116061       0.22472936 # dw=0.00254
C        3.77347179      -1.16929956      -0.25732666 # dw=0.00875
C        3.21516048       0.23724164      -0.23865784
S        1.80240297       0.45666833      -1.37272773 # dw=0.00267
C        1.97547179      -1.67729956       3.06367334 # dw=0.01381
C        0.64148429      -1.03141249       3.42390140
C        0.59075416       0.41790373       3.09770670
N        0.40267780       0.89934538       1.81901192 # dw=0.00297
C        0.75260571       1.48529467       3.93435127 # dw=0.00350
C        0.45198386       2.21637633       1.88975218
N        0.66298807       2.60415321       3.15044109
C       -5.55452822       2.60470044      -2.01732666
C       -4.67697573       3.06574835      -0.85917099 # dw=0.00413
C       -3.30980774       2.49517994      -0.92746631
N       -2.41957582       2.80621234      -1.92582572
C       -2.66213111       1.57329849      -0.15712317
C       -1.29706101       2.09676843      -1.74409743
N       -1.41314574       1.33618778      -0.67721861 # dw=0.00286
Zn       0.00000000       0.00000000       0.00000000
H       -2.70044987      -1.93549163      -3.16556725
H       -1.26139003      -2.85098587      -2.68008904
H       -1.23170492      -1.08452697      -2.65792625
H       -2.98585472      -2.83671418      -0.85909654
H       -2.96116703      -1.07990589      -0.84674220
H        4.59827102      -1.27417442       0.45575344
H        4.14883774      -1.42399508      -1.25155415
H        3.00394903      -1.90013966       0.00134217
H        2.89919438       0.51128934       0.77023303
H        3.98737793       0.95014586      -0.53776748
H        1.97080237      -2.73923766       3.31887036
H        2.79853897      -1.19822414       3.59893335
H        2.17073702      -1.58828353       1.99447809
H       -0.16767468      -1.54232486       2.89366361
H        0.45031296      -1.14834421       4.49334158
H        0.92015739       1.53936840       4.99699868
H        0.33358839       2.89777203       1.06247227
H        0.73274785       3.55903398       3.46534191
H       -6.55307593       3.03946453      -1.93993018
H       -5.65264596       1.51688565      -2.01905652
H       -5.12963540       2.90734754      -2.97717730
H       -4.61917761       4.15902993      -0.85003691
H       -5.11840521       2.76369165       0.09268553
H       -2.57792006       3.46138415      -2.67598007
H       -3.01330369       1.06759338       0.72831879
H       -0.43031702       2.15938419      -2.38259929
