47
Coordinates from ORCA-job Cx17CHx22H-LLLL-1clc-cluster1 E -3371.344831727909
  C          -1.64400000004322     -2.23499999966489     -2.17699999983349
  C          -2.13683268416949     -2.23981692315595     -0.74406533985891
  S          -0.81344418722378     -2.31586105025973      0.51505602099870
  C           3.98700000179147     -1.44400000090118      0.03300000057793
  C           3.42868869755102     -0.03745880090331      0.05166881646054
  S           2.01593118879337      0.18196788689684     -1.08240106898223
  C           2.18900000074003     -1.95200000034067      3.35400000012297
  C           0.85501250757455     -1.30611292600786      3.71422805537396
  C           0.80428237266988      0.14320329297470      3.38803335707115
  N           0.61620601151068      0.62464494078967      2.10933857678925
  C           0.96613392520943      1.21059422517222      4.22467792267300
  C           0.66551207164871      1.94167589464407      2.18007883531173
  N           0.87651628128704      2.32945277198786      3.44076774419901
  C          -5.34100000248828      2.33000000090674     -1.72700000086741
  C          -4.46344751994527      2.79104790651474     -0.56884433468265
  C          -3.09627952960269      2.22047949952672     -0.63713964939925
  N          -2.20604760779249      2.53151189556705     -1.63549906768642
  C          -2.44860289333239      1.29859805442208      0.13320349056947
  C          -1.08353279901729      1.82206798772993     -1.45377077309301
  N          -1.19961752748274      1.06148733575728     -0.38689195544551
  Zn          0.21352821381134     -0.27470044026023      0.29032665612545
  H          -2.48692165450326     -2.21019207025454     -2.87524058891622
  H          -1.04786181610967     -3.12568630887969     -2.38976238177629
  H          -1.01817671104422     -1.35922741160820     -2.36759959493817
  H          -2.77232650348983     -3.11141462241241     -0.56876988464862
  H          -2.74763881130913     -1.35460633225831     -0.55641554692292
  H           4.81179923154641     -1.54887486351907      0.74608009721301
  H           4.36236594993875     -1.69869551792295     -0.96122749838092
  H           3.21747724228574     -2.17484010319282      0.29166882707591
  H           3.11272259501759      0.23658889982142      1.06055968992764
  H           4.20090614283531      0.67544542366842     -0.24744082479007
  H           2.18433058051361     -3.01393809854394      3.60919701673836
  H           3.01206718592794     -1.47292457883172      3.88926000292430
  H           2.38426523609713     -1.86298396689390      2.28480474911195
  H           0.04585353571449     -1.81702530004721      3.18399026263073
  H           0.66384117735702     -1.42304464575734      4.78366823843637
  H           1.13368560147701      1.26466796154851      5.28732533193827
  H           0.54711660527048      2.62307159362947      1.35279892590564
  H           0.94627606751380      3.28433354084493      3.75566856768219
  H          -6.33954771339019      2.76476408673655     -1.64960352789458
  H          -5.43911774916610      1.24218520837671     -1.72872986669856
  H          -4.91610719110369      2.63264709762132     -2.68685064745684
  H          -4.40564939641976      3.88432948836999     -0.55971025147210
  H          -4.90487699884854      2.48899121451915      0.38301218876250
  H          -2.36439184762948      3.18668371327137     -2.38565341393997
  H          -2.79977547637054      0.79289293818833      1.01864544756643
  H          -0.21678880743329      1.88468374897427     -2.09227263656358
