47
Coordinates from ORCA-job Cx18Cx4Hx55H-LSSL-1eh6-cluster1-H-only E -3371.303932041367
C       -0.06892645      -4.48689213       1.29591894 # dw=0.01531
C       -0.96100520      -3.41862734       1.94564799
S       -0.38336382      -1.70430091       1.74943550 # dw=0.00430
C        4.28307673      -1.52261277      -1.41128132 # dw=0.00693
C        2.99949666      -2.01649607      -0.73803211
S        1.51779684      -1.14063468      -1.27608553 # dw=0.00261
C        3.00100689       5.24326660       1.11383445 # dw=0.00811
C        3.01922845       4.12357392       2.15710540
C        1.92674433       3.11631336       1.99622151
N        0.86282668       2.99337531       2.86196250
C        1.76309973       2.13887918       1.06838485
C        0.10563008       1.96339683       2.44843423
N        0.60901817       1.41029323       1.36261986 # dw=0.00295
C       -1.13128686       4.12489052      -1.89749026 # dw=0.00952
C       -0.66356719       2.68418990      -2.10993796
C       -1.75142511       1.67270392      -1.93181927
N       -1.65110606       0.66111983      -1.00938514 # dw=0.00291
C       -2.94669450       1.58572601      -2.56620080
C       -2.78178675      -0.01220451      -1.09408753
N       -3.60093406       0.50714141      -2.02264690
Zn       0.00000000       0.00000000       0.00000000
H       -0.45913242      -5.48864243       1.50240575
H        0.95056162      -4.42580342       1.68445478
H       -0.02658505      -4.34964140       0.21282981
H       -1.01324482      -3.59306845       3.02250760
H       -1.97879015      -3.51447726       1.55792671
H        5.13332230      -2.13198756      -1.08990019
H        4.48245085      -0.48113180      -1.14917995
H        4.20098635      -1.59050743      -2.49838277
H        3.10125141      -1.95014960       0.34874179
H        2.84380905      -3.07138930      -0.97470103
H        3.82783174       5.93438527       1.28804517
H        2.06595597       5.80583755       1.16073503
H        3.10159007       4.83552069       0.10584683
H        2.95270935       4.55300431       3.16003635
H        3.97707500       3.59958843       2.10642928
H        0.69276610       3.55709497       3.68066699
H        2.38467152       1.89065180       0.22317667
H       -0.79352660       1.64626278       2.95257728
H       -0.30114060       4.81990792      -2.03941290
H       -1.52294628       4.25992050      -0.88658931
H       -1.92000946       4.38891916      -2.60511216
H       -0.23654228       2.58659083      -3.11283932
H        0.14251182       2.45185885      -1.41134948
H       -3.38816288       2.19695585      -3.33516747
H       -3.03097150      -0.88233356      -0.50652129
H       -4.51975460       0.16668342      -2.25770983
