47
Coordinates from ORCA-job Cx2Cx59Hx48H-LLLL-1gup-cluster3-H-only E -3371.314735554288
  C          -0.24536290701696      2.30458802582368     -3.57500625926924
  C          -0.27117248705256      1.15244852871281     -2.56015974635455
  S          -0.86775044987184      1.68955725081225     -0.92180387691618
  C           3.19069547706544      1.83631709541727      0.25199508616115
  C           3.14829193681083      0.68837460561145     -0.77917899219376
  S           2.15054541037316     -0.74586957844109     -0.37950851606014
  C          -0.20585421078970     -3.64196679338833      2.06540533847476
  C           0.20803810225456     -3.75331061447692      0.57388004311174
  C          -0.83668739204607     -3.17748032580102     -0.24828972050251
  N          -1.00737030976015     -1.79868684678875     -0.22834269425320
  C          -1.78203711493021     -3.75753266145957     -1.05746657909474
  C          -2.05672456709249     -1.55286469785933     -1.02855336343096
  N          -2.54773171040294     -2.70840220368035     -1.54025645934521
  C          -3.48525880795694      0.31703226194242      2.60496677169876
  C          -2.14492389845590      1.10767146039586      2.36363093051022
  C          -0.88504047162548      0.56511790638394      3.01805769633449
  N           0.18343921245205      0.05048068834304      2.28926094918883
  C          -0.52049320194301      0.49041775617637      4.32748015519001
  C           1.16593971295759     -0.33742423705132      3.11037758852213
  N           0.76118296152515     -0.08804216290433      4.34592829697411
  Zn         -0.00080179839445     -0.00349868800033      0.00303644646562
  H           0.09811621617526      1.94312047545440     -4.54815989336870
  H           0.43037498959622      3.09532681791985     -3.24162364864832
  H          -1.24129338555690      2.73592640734681     -3.70037246830423
  H           0.72977576645275      0.73146522151217     -2.45354781876053
  H          -0.92164440909595      0.35457762172040     -2.92731868390356
  H           3.84229956551430      2.63820093315742     -0.10631944103318
  H           3.56968426723696      1.48198034355196      1.21389219551739
  H           2.19040664077838      2.24590105367723      0.41083931317182
  H           2.81623113215643      1.10207506604571     -1.73656079600364
  H           4.16741705422941      0.32660731213601     -0.94233748483799
  H           0.57658008417462     -4.03290609118546      2.71984603723101
  H          -1.12241736757324     -4.20818060210447      2.24407735596157
  H          -0.38536340258189     -2.59903410813584      2.32796156675749
  H           1.14790960635732     -3.21780240951054      0.41486968478068
  H           0.37250529370078     -4.80036741701833      0.31095865574300
  H          -1.97441484181497     -4.78498522632521     -1.31543192466097
  H          -2.46475359187632     -0.57761024178938     -1.24689503011383
  H          -3.33594139075371     -2.78140705477012     -2.16422211182672
  H          -4.29613300958429      0.82540660978819      2.08169082677273
  H          -3.72487198354113      0.27286862358637      3.66875015169221
  H          -3.40273630366729     -0.70231468987274      2.22213366544613
  H          -2.29123612682314      2.13568153991134      2.70608629215033
  H          -1.96845741757346      1.15800326222417      1.28965525123420
  H          -1.01016913916066      0.76762240908903      5.24660312596024
  H           2.10803410291613     -0.76966785409065      2.81755082011370
  H           1.29038816421427     -0.26498677208607      5.18613126371786
