47
Coordinates from ORCA-job Cx2Cx59Hx48H-LLLL-1gup-cluster3-H-only E -3371.314735554288
C       -0.24456111       2.30808671      -3.57804271 # dw=0.00511
C       -0.27037069       1.15594722      -2.56319619
S       -0.86694865       1.69305594      -0.92484032 # dw=0.00175
C        3.19149728       1.83981578       0.24895864
C        3.14909374       0.69187329      -0.78221544
S        2.15134721      -0.74237089      -0.38254496 # dw=0.00267
C       -0.20505241      -3.63846811       2.06236889
C        0.20883990      -3.74981193       0.57084360
C       -0.83588559      -3.17398164      -0.25132617
N       -1.00656851      -1.79518816      -0.23137914 # dw=0.00315
C       -1.78123532      -3.75403397      -1.06050303 # dw=0.00379
C       -2.05592277      -1.54936601      -1.03158981
N       -2.54692991      -2.70490352      -1.54329291
C       -3.48445701       0.32053095       2.60193033 # dw=0.00895
C       -2.14412210       1.11117015       2.36059448
C       -0.88423867       0.56861659       3.01502125
N        0.18424101       0.05397938       2.28622450 # dw=0.00706
C       -0.51969140       0.49391644       4.32444371 # dw=0.00622
C        1.16674151      -0.33392555       3.10734114
N        0.76198476      -0.08454347       4.34289185
Zn       0.00000000       0.00000000       0.00000000
H        0.09891801       1.94661916      -4.55119634
H        0.43117679       3.09882551      -3.24466010
H       -1.24049159       2.73942510      -3.70340891
H        0.73057756       0.73496391      -2.45658427
H       -0.92084261       0.35807631      -2.93035513
H        3.84310136       2.64169962      -0.10935589
H        3.57048607       1.48547903       1.21085575
H        2.19120844       2.24939974       0.40780287
H        2.81703293       1.10557375      -1.73959724
H        4.16821885       0.33010600      -0.94537393
H        0.57738188      -4.02940740       2.71680959
H       -1.12161557      -4.20468191       2.24104091
H       -0.38456160      -2.59553542       2.32492512
H        1.14871140      -3.21430372       0.41183324
H        0.37330709      -4.79686873       0.30792221
H       -1.97361304      -4.78148654      -1.31846837
H       -2.46395179      -0.57411155      -1.24993148
H       -3.33513959      -2.77790837      -2.16725856
H       -4.29533121       0.82890530       2.07865438
H       -3.72407019       0.27636731       3.66571371
H       -3.40193451      -0.69881600       2.21909722
H       -2.29043433       2.13918023       2.70304985
H       -1.96765562       1.16150195       1.28661880
H       -1.00936734       0.77112110       5.24356668
H        2.10883590      -0.76616917       2.81451437
H        1.29118996      -0.26148808       5.18309482
