47
Coordinates from ORCA-job Hx56Hx1Cx3C-HHLH-1ia9-cluster1 E -3371.345429223501
C       -1.26055323      -3.65408819      -3.19725037 # dw=0.00565
C       -0.88907319      -2.61005422      -2.15821789
C       -1.63150502      -1.33055313      -2.31437925
N       -1.37882489      -0.22765144      -1.52526899 # dw=0.00294
C       -2.62890001      -1.00756763      -3.18990781 # dw=0.00343
C       -2.20096877       0.72688628      -1.91622457
N       -2.96935800       0.29154098      -2.91850335
C       -3.59555323      -3.04108819       4.49974963
C       -3.40846255      -3.33750928       3.01308016 # dw=0.00422
C       -2.20514510      -2.70710430       2.40848032
N       -0.91753566      -3.06318793       2.72998462
C       -2.06727136      -1.72336228       1.47092046
C       -0.06584590      -2.31938322       2.00723948
N       -0.73302824      -1.49371908       1.23120800 # dw=0.00298
C        1.09244677       1.19791181       3.02174963
C        0.76227251       2.37428514       2.12682325
S       -0.55098761       2.04616795       0.89992483 # dw=0.00260
C        4.10544676       1.39191181      -1.50425037 # dw=0.00544
C        2.95945939       1.21400917      -0.52553580
S        2.14671042      -0.41907343      -0.69350187 # dw=0.00254
Zn       0.00000000       0.00000000       0.00000000
H       -0.68823670      -4.56931229      -3.03842181
H       -1.05306144      -3.29685758      -4.20884859
H       -2.32201935      -3.90786688      -3.14148607
H        0.18466789      -2.39669722      -2.20259736
H       -1.07114178      -3.00151857      -1.15164010
H       -3.11429221      -1.57421116      -3.96589786
H       -2.25638129       1.72135911      -1.50228534
H       -3.67599902       0.83155019      -3.39252862
H       -4.49280489      -3.53754459       4.87379604
H       -3.69867396      -1.96756279       4.67224466
H       -2.74390592      -3.39789367       5.08369062
H       -3.35749359      -4.42094319       2.86183235
H       -4.27687946      -2.98509583       2.45238891
H       -0.64772386      -3.77211735       3.39470882
H       -2.83852475      -1.17467551       0.95418238
H        1.00764786      -2.40122126       2.07131680
H        1.84377585       1.47998274       3.76657358
H        1.49240604       0.36631716       2.43643332
H        0.20377279       0.84116563       3.54822914
H        0.41380860       3.21796901       2.72753708
H        1.65970713       2.70397654       1.59998387
H        4.58180734       2.36674956      -1.36163077
H        3.75175274       1.33163983      -2.53646184
H        4.86648537       0.61978220      -1.36443995
H        2.20726527       1.99037595      -0.67681297
H        3.32514865       1.31477550       0.49882471
