9
Coordinates from ORCA-job zn-1cys-charge-4 E -2281.461361532650
  C          -0.39724836195341      2.90467778125894      3.62389713082874
  C          -0.34262445891010      2.02532391862031      2.47654277207283
  S          -1.34007691168810      1.78765520590664      1.23606243808569
  Zn          0.52668382984692     -0.80547581898840     -0.97444915798301
  H          -0.32752882328007      2.27475276974696      4.52921728043923
  H          -1.29389659074550      3.51988343163529      3.62212396822849
  H           0.52649499700343      3.50994216770863      3.62680336775935
  H           0.81116506080577      1.67935075464194      2.13677616875293
  H           0.35451125892106      0.99808978946967      2.65346603181571
