16
Coordinates from ORCA-job zn-1his-delta-charge-1 E -2108.171728141643
  C           2.10546944669089     -1.97119175484173      3.13849775913849
  C           0.80362624233394     -1.21634562821506      3.38669091902334
  C           0.91402107044833      0.24268730696332      3.12500062560662
  N           1.02380994567360      0.77387483766060      1.85451513072666
  C           0.95792795853001      1.27799812596290      4.01056406307600
  C           1.12879324217756      2.08681658521926      1.97837963374246
  N           1.09368279719698      2.42020596269464      3.26691421403437
  Zn          0.99540591741778     -0.19164699986494      0.08520354665762
  H           1.97508307264743     -3.03536814370322      3.34483574183669
  H           2.90326935077423     -1.59133949350147      3.78049845525168
  H           2.42850089224235     -1.86687424313673      2.09932192437772
  H           0.01152414728936     -1.63191996990482      2.75538407484486
  H           0.48628413002539     -1.35151486741533      4.42285845642483
  H           0.90384841689780      1.29573520666585      5.08601149366258
  H           1.22383937131141      2.79459376790325      1.17053466273506
  H           1.15146399834293      3.36023930751346      3.62780929886096
