47
Coordinates from ORCA-job Cx2Cx35Hx54H-LLLL-1z84-cluster2 E -3371.346731097379 | rotated RESSEQ=4 alpha=-10.000 beta=0.000 gamma=0.000
 C      -3.42400000      -0.56700000       2.92200000   # RES=CYS RESSEQ=1 ATOM=CA
 C      -2.00521263      -0.60855624       2.39083253   # RES=CYS RESSEQ=1 ATOM=CB
 S      -1.56618136       0.92674131       1.50035470   # RES=CYS RESSEQ=1 ATOM=SG
 C      -2.96100000      -0.63600000      -2.37900000   # RES=CYS RESSEQ=2 ATOM=CA
 C      -2.47763398      -1.56331840      -1.28378643   # RES=CYS RESSEQ=2 ATOM=CB
 S      -0.66094414      -1.72414951      -1.20645021   # RES=CYS RESSEQ=2 ATOM=SG
 C       3.11400000      -1.21600000      -1.85700000   # RES=HIS RESSEQ=3 ATOM=CA
 C       2.85347548      -1.93983437      -0.54069877   # RES=HIS RESSEQ=3 ATOM=CB
 C       2.81496500      -1.04438913       0.64668359   # RES=HIS RESSEQ=3 ATOM=CG
 N       1.75204183      -0.21337731       0.93967389   # RES=HIS RESSEQ=3 ATOM=N
 C       3.75778578      -0.88583705       1.62190818   # RES=HIS RESSEQ=3 ATOM=C
 C       2.05010539       0.41734417       2.05931688   # RES=HIS RESSEQ=3 ATOM=C
 N       3.25426798       0.03904109       2.49715712   # RES=HIS RESSEQ=3 ATOM=N
 C       1.77141231       4.27571026       0.91076979   # RES=HIS RESSEQ=4 ATOM=CA
 C       0.49998857       3.66118123       0.33325280   # RES=HIS RESSEQ=4 ATOM=CB
 C       0.67669427       3.05257543      -1.01687494   # RES=HIS RESSEQ=4 ATOM=CG
 N       0.46068001       1.71479631      -1.27727095   # RES=HIS RESSEQ=4 ATOM=N
 C       1.03903711       3.65661943      -2.18860203   # RES=HIS RESSEQ=4 ATOM=C
 C       0.68102242       1.52587105      -2.56493692   # RES=HIS RESSEQ=4 ATOM=C
 N       1.03398657       2.67679986      -3.14375352   # RES=HIS RESSEQ=4 ATOM=N
Zn      -0.04040902       0.14690840      -0.02993086   # RES=HIS RESSEQ=0
 H      -3.65773960      -1.48247174       3.47456938   # RES=CYS RESSEQ=1
 H      -4.14239952      -0.46878282       2.10425651   # RES=CYS RESSEQ=1
 H      -3.56546372       0.28120140       3.59681626   # RES=CYS RESSEQ=1
 H      -1.29886898      -0.74872896       3.21294896   # RES=CYS RESSEQ=1
 H      -1.87904575      -1.45393676       1.71063617   # RES=CYS RESSEQ=1
 H      -4.05525471      -0.59979048      -2.40289754   # RES=CYS RESSEQ=2
 H      -2.60819914      -0.96740518      -3.35866653   # RES=CYS RESSEQ=2
 H      -2.59154945       0.37982404      -2.21504134   # RES=CYS RESSEQ=2
 H      -2.87556634      -2.56921095      -1.43902572   # RES=CYS RESSEQ=2
 H      -2.83797099      -1.21590370      -0.31320792   # RES=CYS RESSEQ=2
 H       3.10712697      -1.92203625      -2.69002211   # RES=HIS RESSEQ=3
 H       4.08413695      -0.71352115      -1.84078652   # RES=HIS RESSEQ=3
 H       2.34634017      -0.46344420      -2.04603745   # RES=HIS RESSEQ=3
 H       3.63153902      -2.68866258      -0.37284869   # RES=HIS RESSEQ=3
 H       1.90330964      -2.47867095      -0.60535579   # RES=HIS RESSEQ=3
 H       4.71878833      -1.35062778       1.76586721   # RES=HIS RESSEQ=3
 H       1.41495284       1.12655882       2.56599860   # RES=HIS RESSEQ=3
 H       3.70534464       0.37444183       3.33365286   # RES=HIS RESSEQ=3
 H       1.57410276       4.70904004       1.89356201   # RES=HIS RESSEQ=4
 H       2.15565844       5.06613775       0.26223552   # RES=HIS RESSEQ=4
 H       2.55349306       3.52040906       1.02197787   # RES=HIS RESSEQ=4
 H       0.11379336       2.89055978       1.00399860   # RES=HIS RESSEQ=4
 H      -0.27630119       4.43070879       0.27644743   # RES=HIS RESSEQ=4
 H       1.28668640       4.67926926      -2.41917277   # RES=HIS RESSEQ=4
 H       0.59199647       0.58465733      -3.08374481   # RES=HIS RESSEQ=4
 H       1.25305461       2.79808334      -4.12021949   # RES=HIS RESSEQ=4
