47
Coordinates from ORCA-job CCx39Hx26H-LLLH-2eg3-cluster1 E -3371.344680724183
C        4.40930425      -0.26193267      -0.69057038 # dw=0.00597
C        3.14577830      -0.87257946      -0.11825492
S        2.13166280       0.33965870       0.80639909 # dw=0.00258
C        2.01930424      -0.30493267      -3.68357037
C        1.31963153       0.76645884      -2.87122258
S       -0.32147531       0.24196498      -2.26008781 # dw=0.00256
C       -4.85969577       3.63406735       0.86542963 # dw=0.00724
C       -4.04863944       3.38209979       2.12354040
C       -2.86031757       2.51623659       1.90232415 # dw=0.00332
N       -2.04818088       2.11588065       2.93453174
C       -2.31160775       1.94801687       0.78692141
C       -1.06734813       1.34520817       2.44597313
N       -1.19760366       1.22189169       1.14229981 # dw=0.00289
C       -3.43469576      -1.33793270      -0.89157038
C       -3.18070988      -1.61578093       0.58518518
C       -1.92997399      -2.37756328       0.84431296
N       -0.66484469      -1.85856869       0.65407893 # dw=0.00308
C       -1.79984902      -3.66163832       1.29024189 # dw=0.00359
C        0.19371670      -2.80577447       0.97978099
N       -0.45547152      -3.90809259       1.36580808
Zn       0.00000000       0.00000000       0.00000000
H        5.00046136      -1.01994714      -1.21419803
H        5.03003742       0.16498105       0.10127451
H        4.17200695       0.53536723      -1.39836674
H        3.40419814      -1.69017794       0.55973224
H        2.53646493      -1.29762441      -0.91686622
H        2.99381683       0.05105276      -4.03401618
H        1.42620766      -0.58319545      -4.55841394
H        2.18045299      -1.20730538      -3.08997576
H        1.17448746       1.66090967      -3.48191672
H        1.92658660       1.05281706      -2.01028986
H       -5.71539738       4.27222146       1.08944990
H       -5.23449956       2.69843596       0.44387211
H       -4.25832244       4.13059919       0.10040906
H       -4.68149203       2.91722307       2.88736012
H       -3.71650362       4.33556255       2.54926044
H       -2.16648009       2.36164017       3.90558214
H       -2.64220942       2.00630493      -0.23715851
H       -0.29466554       0.89749065       3.05073961
H       -4.35798514      -0.76865749      -1.01969932
H       -3.52509773      -2.27007972      -1.45428453
H       -2.61869239      -0.75907315      -1.32874742
H       -4.01269740      -2.18847216       1.00211104
H       -3.14546323      -0.66895994       1.13160319
H       -2.53627533      -4.40041300       1.55902081
H        1.26775234      -2.71912311       0.95394278
H       -0.02328731      -4.76709215       1.66751990
