47
Coordinates from ORCA-job Cx2Cx12Hx3H-LLHH-1a1g-cluster2 E -3371.344616322976
C       -2.31282598      -3.88787587       0.70571010 # dw=0.00493
C       -1.62200706      -2.54825127       0.85442495
S       -0.72960781      -2.07060374      -0.66775439 # dw=0.00253
C        3.09717402      -1.80387587       1.24771010 # dw=0.01005
C        2.97591375      -0.29355196       1.20397763
S        1.37197825       0.34448153       1.80799811 # dw=0.00256
C       -5.47382597       3.35112413      -1.06628990
C       -5.22825547       2.10060100      -0.22685219 # dw=0.00414
C       -3.79777048       1.87349783       0.10228514
N       -3.06325172       2.71629088       0.90066926
C       -2.92328896       0.89006311      -0.26164284
C       -1.81238597       2.24282448       0.99982389
N       -1.69452342       1.13247218       0.30352188 # dw=0.00289
C        0.82617402       3.23012413      -5.56128991
C        1.35436210       1.85653903      -5.15993698 # dw=0.00408
C        1.29585713       1.61492006      -3.69665150
N        2.02143903       2.34281322      -2.78529345
C        0.57156965       0.73656379      -2.94319211
C        1.73258118       1.90793409      -1.55089879
N        0.85380971       0.93055567      -1.61251532 # dw=0.00281
Zn       0.00000000       0.00000000       0.00000000
H       -2.83766605      -4.15627458       1.62769300
H       -1.59122798      -4.67807417       0.48327068
H       -3.04376215      -3.86278106      -0.10647880
H       -2.35474771      -1.77185776       1.08828874
H       -0.90994182      -2.58023061       1.68288364
H        4.08352491      -2.12233201       0.89464652
H        2.33963352      -2.27275473       0.61490087
H        2.96176027      -2.17646141       2.26591368
H        3.13811334       0.06753712       0.18592530
H        3.74720251       0.16234358       1.82958408
H       -6.53871426       3.46274938      -1.27892580
H       -4.93786971       3.29314660      -2.01620691
H       -5.13941319       4.25015357      -0.54331075
H       -5.58648309       1.21686905      -0.75901939
H       -5.80638017       2.16376163       0.70109340
H       -3.40603108       3.55186228       1.34953099
H       -3.09316978       0.02548485      -0.88372489
H       -1.03157313       2.71821586       1.57215053
H        0.88669219       3.36077104      -6.64342314
H        1.40737925       4.02821855      -5.09362012
H       -0.21647004       3.34891819      -5.25854692
H        2.38734067       1.74464804      -5.50571797
H        0.77269147       1.07210762      -5.64841495
H        2.67046591       3.08335328      -3.00356420
H       -0.12950695      -0.01432414      -3.27115841
H        2.16493813       2.31085695      -0.64858842
