47
Coordinates from ORCA-job Hx1Hx1Cx35C-HLHH-2glz-cluster2-H-only E -3371.317547814536
C       -4.07697506       4.79517869       2.02882147
C       -5.41721143       0.92066700      -2.19999372 # dw=0.00817
N       -1.02966202       1.55460470       0.93825815 # dw=0.00313
N       -0.92773605       0.50077954      -1.97443401 # dw=0.00534
C       -2.93059836       0.74339036      -2.87830820
C       -2.51577750       2.75702031       2.02206046
C       -2.19293378      -4.23066689      -0.53317741 # dw=0.00532
S       -0.63278361      -2.10150553       0.49679411 # dw=0.00232
C        1.66591895       0.28579988       2.44328027
C       -3.75079565       3.38244445       2.59553742 # dw=0.00432
C       -0.79382196       1.32530190      -2.99850622
C       -0.38615038       2.56741928       1.48983895
C       -4.36676577       0.69081259      -3.31493132
C        2.42041949       1.23193608       3.36992165 # dw=0.00545
C       -1.07464564      -3.24163181      -0.87267003
S        2.08384576       0.50204014       0.71491505 # dw=0.00235
C       -2.36344068       1.67279276       1.21839753
C       -2.25425304       0.11171601      -1.88465509
N       -1.98272815       1.48222475      -3.56144787
N       -1.26498347       3.31644090       2.13208269
Zn       0.00000000       0.00000000       0.00000000
H       -4.98832232       5.17787902       2.49080850
H       -4.22392331       4.74959088       0.94793539
H       -3.26554894       5.49526999       2.23786663
H       -6.42093527       0.84788832      -2.62098405
H       -5.29591349       1.90844297      -1.75070009
H       -5.31922222       0.17161641      -1.41151303
H       -2.36439968      -4.89760759      -1.38276058
H       -3.12471613      -3.70589080      -0.30979719
H       -1.92922151      -4.84034341       0.33437294
H        1.87885115      -0.74666335       2.73465284
H        0.59364524       0.42823249       2.59427318
H       -3.65450495       3.45121471       3.68386127
H       -4.58210524       2.70474125       2.39319417
H        0.11408465       1.80624241      -3.32408368
H        0.67477464       2.74437420       1.42536376
H       -4.55599572      -0.28190003      -3.77983373
H       -4.51271785       1.43635338      -4.10108805
H        3.50057966       1.10119533       3.26454706
H        2.15327007       1.03871150       4.41307396
H        2.18779313       2.27554663       3.14519164
H       -1.36309588      -2.64778877      -1.74301556
H       -0.17141990      -3.79081827      -1.14622865
H       -3.09490092       0.95952019       0.87702446
H       -2.59794963      -0.56544388      -1.12007998
H       -2.17976382       2.05286109      -4.36980975
H       -1.04984289       4.15138242       2.65589400
