47
Coordinates from ORCA-job Hx1Hx1Cx35C-HLHH-2glz-cluster2-H-only E -3371.317547814536
  C          -4.07787476903866      4.79668138519410      2.02785991243383
  C          -5.41811114401831      0.92216970148758     -2.20095527794465
  N          -1.03056173354226      1.55610739570946      0.93729659096585
  N          -0.92863576384523      0.50228224153052     -1.97539557284438
  C          -2.93149807528044      0.74489306309704     -2.87926976243790
  C          -2.51667721548375      2.75852301144131      2.02109890036760
  C          -2.19383348977583     -4.22916419435932     -0.53413896843135
  S          -0.63368332490546     -2.10000283632547      0.49583254943240
  C           1.66501923648984      0.28730258208477      2.44231871004701
  C          -3.75169536656990      3.38394714443369      2.59457585749676
  C          -0.79472167628070      1.32680460178917     -2.99946778462869
  C          -0.38705009204530      2.56892197988046      1.48887739181227
  C          -4.36766548462268      0.69231528373129     -3.31589288305744
  C           2.41951977394791      1.23343877502213      3.36896008802967
  C          -1.07554535388726     -3.24012910709977     -0.87363159176828
  S           2.08294604999232      0.50354284103641      0.71395349141863
  C          -2.36434039147572      1.67429545368868      1.21743597345419
  C          -2.25515274993885      0.11321871098390     -1.88561664700410
  N          -1.98362786308268      1.48372745080433     -3.56240943168357
  N          -1.26588317895844      3.31794359641100      2.13112113118962
  Zn         -0.00089971297367      0.00150269848187     -0.00096156048098
  H          -4.98922203792297      5.17938171417687      2.48984694356967
  H          -4.22482302627129      4.75109357847232      0.94697382888044
  H          -3.26644865307518      5.49677268563070      2.23690506698388
  H          -6.42183498612953      0.84939101883558     -2.62194560687716
  H          -5.29681320226424      1.90994566908054     -1.75166165247590
  H          -5.32012192945740      0.17311910360699     -1.41247458856262
  H          -2.36529939384535     -4.89610488904772     -1.38372214360755
  H          -3.12561584748386     -3.70438810446696     -0.31075874726655
  H          -1.93012121807707     -4.83884071228244      0.33341138071427
  H           1.87795143250192     -0.74516065609738      2.73369128133931
  H           0.59274552999908      0.42973518513772      2.59331161468340
  H          -3.65540466365169      3.45271740987066      3.68289970549257
  H          -4.58300495056675      2.70624394569392      2.39223260678527
  H           0.11318493518548      1.80774510484029     -3.32504523866231
  H           0.67387492746539      2.74587689390025      1.42440219532429
  H          -4.55689542941415     -0.28039733130052     -3.78079529456166
  H          -4.51361755998451      1.43785608180404     -4.10204961274617
  H           3.49967994470999      1.10269802607132      3.26358549814131
  H           2.15237035599437      1.04021419676356      4.41211240147407
  H           2.18689342097677      2.27704932884936      3.14423007605761
  H          -1.36399559230029     -2.64628607339042     -1.74397712340404
  H          -0.17231961717897     -3.78931556990452     -1.14719020551178
  H          -3.09580062944270      0.96102288489056      0.87606290084804
  H          -2.59884934605442     -0.56394117858400     -1.12104153659077
  H          -2.18066353721070      2.05436378655683     -4.37077130800087
  H          -1.05074260120680      4.15288512186927      2.65493244160677
