47
Coordinates from ORCA-job Cx4Cx76Hx4H-HLHH-1pi1-cluster1-H-only E -3371.334269196138
  C           1.78462104793280     -2.55411548421563      2.03378142509762
  C           0.72830020873081     -1.63853781779635      2.67943909090997
  S           0.76577937926444      0.06592934168025      2.01609527806342
  C           3.83252271362061      1.20003613511366     -2.62704622267728
  C           2.69693864310085      1.31392048190432     -1.60379201460475
  S           1.48598350644629     -0.01617792678989     -1.81242537770616
  C          -5.49929436848084      3.19185799404342     -1.01802377219719
  C          -4.35180405389527      3.61453367009331     -0.09269990953697
  C          -3.07268624775274      2.88223966782642     -0.36837568332370
  N          -2.36799909266866      3.03725790137697     -1.54409391574270
  C          -2.39515668078806      1.95978143129315      0.35675429716249
  C          -1.30705364384058      2.24621090847548     -1.52684834885849
  N          -1.30174920405246      1.58212380947662     -0.38631286648470
  C          -4.67726703765253     -4.08080049834498     -1.77872529527391
  C          -4.18705751703999     -3.73770395514644     -0.37471661013486
  C          -2.86502689869019     -3.03576621705650     -0.35851611659149
  N          -1.68785556540519     -3.65912015979701     -0.71633802299765
  C          -2.53513336984912     -1.75653621864102     -0.04835023776996
  C          -0.68886134566422     -2.79710089577737     -0.62145210546841
  N          -1.17602736208171     -1.63375093862346     -0.21966466522418
  Zn         -0.00106063892889      0.00035741894298     -0.00129553916704
  H           1.71125860486900     -3.57091498536827      2.43215467534929
  H           2.78970597031709     -2.17527396515864      2.23220304574833
  H           1.64945139587822     -2.59440723398180      0.95276129073945
  H          -0.26945204877584     -2.05659173385008      2.53077077154822
  H           0.90071530386137     -1.56156925738725      3.75430036302984
  H           4.55100901289571      2.01461077298041     -2.49577168823634
  H           3.44057179332935      1.24824112576036     -3.64584309474065
  H           4.36149842299907      0.25106653151964     -2.51206367340774
  H           2.19771966830868      2.28019968330222     -1.71394366782770
  H           3.10713738894306      1.27739048248097     -0.59097385909280
  H          -6.40814758612278      3.74453481606313     -0.77246773237749
  H          -5.70572810370335      2.12448637890387     -0.91448679308578
  H          -5.25469948554322      3.39134281030226     -2.06379882429445
  H          -4.62063664567990      3.42364123434198      0.94806793367297
  H          -4.18241134353869      4.69191150485017     -0.18552462780412
  H          -2.62052864353756      3.66736986876952     -2.29020500461380
  H          -2.60357617270643      1.54982575948119      1.33107149378846
  H          -0.57700090944635      2.14761331349914     -2.31412121626327
  H          -5.64452505889820     -4.58489452494449     -1.73127047584607
  H          -3.97640694559383     -4.74451395950626     -2.29044022970421
  H          -4.78997543710267     -3.17734144057923     -2.38201484601684
  H          -4.11802412012165     -4.65064857379343      0.22533032302457
  H          -4.90777743674006     -3.08652484792785      0.12415889769564
  H          -1.60696975731254     -4.62507628967897     -0.99562109936917
  H          -3.15544443052342     -0.93802639568779      0.27614804967251
  H           0.33979609163962     -3.01152772242875     -0.85883339906288
