47
Coordinates from ORCA-job Cx4Cx76Hx4H-HLHH-1pi1-cluster1-H-only E -3371.334269196138
C        1.78568169      -2.55447290       2.03507696
C        0.72936085      -1.63889524       2.68073463
S        0.76684002       0.06557192       2.01739082 # dw=0.00192
C        3.83358335       1.19967872      -2.62575068 # dw=0.00534
C        2.69799928       1.31356306      -1.60249648
S        1.48704415      -0.01653535      -1.81112984 # dw=0.00284
C       -5.49823373       3.19150058      -1.01672823 # dw=0.00698
C       -4.35074341       3.61417625      -0.09140437
C       -3.07162561       2.88188225      -0.36708014 # dw=0.00349
N       -2.36693845       3.03690048      -1.54279838
C       -2.39409604       1.95942401       0.35804984
C       -1.30599300       2.24585349      -1.52555281
N       -1.30068857       1.58176639      -0.38501733 # dw=0.00305
C       -4.67620640      -4.08115792      -1.77742976 # dw=0.00654
C       -4.18599688      -3.73806137      -0.37342107
C       -2.86396626      -3.03612364      -0.35722058
N       -1.68679493      -3.65947758      -0.71504248
C       -2.53407273      -1.75689364      -0.04705470
C       -0.68780071      -2.79745831      -0.62015657
N       -1.17496672      -1.63410836      -0.21836913 # dw=0.00265
Zn       0.00000000       0.00000000       0.00000000
H        1.71231924      -3.57127240       2.43345021
H        2.79076661      -2.17563138       2.23349858
H        1.65051203      -2.59476465       0.95405683
H       -0.26839141      -2.05694915       2.53206631
H        0.90177594      -1.56192668       3.75559590
H        4.55206965       2.01425335      -2.49447615
H        3.44163243       1.24788371      -3.64454756
H        4.36255906       0.25070911      -2.51076813
H        2.19878031       2.27984226      -1.71264813
H        3.10819803       1.27703306      -0.58967832
H       -6.40708695       3.74417740      -0.77117219
H       -5.70466746       2.12412896      -0.91319125
H       -5.25363885       3.39098539      -2.06250329
H       -4.61957601       3.42328382       0.94936347
H       -4.18135070       4.69155409      -0.18422909
H       -2.61946800       3.66701245      -2.28890947
H       -2.60251553       1.54946834       1.33236703
H       -0.57594027       2.14725589      -2.31282568
H       -5.64346442      -4.58525194      -1.72997494
H       -3.97534631      -4.74487138      -2.28914469
H       -4.78891480      -3.17769886      -2.38071931
H       -4.11696348      -4.65100599       0.22662586
H       -4.90671680      -3.08688227       0.12545444
H       -1.60590912      -4.62543371      -0.99432556
H       -3.15438379      -0.93838381       0.27744359
H        0.34085673      -3.01188514      -0.85753786
