47
Coordinates from ORCA-job 1clc-2eps-charge-0 E -3371.348186170406
  C          -1.68144981806009     -2.86672677308950     -2.15587870292109
  C          -2.59293720687880     -2.31806806984632     -1.07756490815906
  S          -1.80468578653115     -2.19716427751895      0.56599830234180
  C           4.31068815671981     -0.07293307484792     -0.88846851805981
  C           2.91794926126926      0.07373321945547     -0.31095793058249
  S           1.81161833640570     -1.26560367464148     -0.87391836317372
  C           1.65567277938934     -2.09169867119817      3.05560556207869
  C           0.42921475358103     -1.31622548459807      3.52512170344883
  C           0.44385616034550      0.10674195900964      3.09581307728228
  N           0.22934112032824      0.49209225948546      1.78953547670237
  C           0.68549312617600      1.22869015262728      3.83542391626857
  C           0.34039636451749      1.80583431607714      1.74737068958083
  N           0.61603922019356      2.28341994794409      2.96469746327101
  C          -4.53870465668731      3.33554212215646     -1.16786957883152
  C          -3.45403903120380      3.31184962029613     -2.22981153197071
  C          -2.36675760609622      2.34818327189804     -1.91999948082575
  N          -1.27649519111645      2.16691611937853     -2.73522000573644
  C          -2.17152518615008      1.48505824754575     -0.87955523617523
  C          -0.47642480536825      1.23695532019202     -2.19376104257022
  N          -0.99202505812663      0.80320923400836     -1.06479627486907
  Zn         -0.16391109356649     -0.65609313116311      0.13044514810221
  H          -2.21055893596956     -2.93833040722960     -3.11192735008547
  H          -1.31719058340297     -3.86220005446904     -1.89056699538943
  H          -0.81202867741548     -2.21882393128999     -2.29592466984922
  H          -3.46641288626101     -2.96360502280440     -0.95732678770688
  H          -2.95975601630115     -1.32938016752027     -1.36317024508423
  H           4.96227371134194      0.73330094100452     -0.53739166899293
  H           4.28768467283610     -0.04010699981932     -1.98066295452300
  H           4.75797373705116     -1.02483221133381     -0.59102694529208
  H           2.95835434594342      0.05809277954570      0.78083857694592
  H           2.48761348830450      1.03506826233652     -0.60296300263613
  H           1.59661195317979     -3.13464272956282      3.37464400195925
  H           2.56941569438189     -1.65809019599572      3.46918759478209
  H           1.73343990173354     -2.07196739822414      1.96519005855824
  H          -0.47598985560290     -1.79430072652455      3.13671875772290
  H           0.36136050165663     -1.34622210492419      4.61510631107956
  H           0.89375522842573      1.36132087003947      4.88383436560316
  H           0.22436495595821      2.42306160860809      0.87118741243957
  H           0.74067021217386      3.25620192650693      3.19721857768162
  H          -5.31476844715166      4.05398580420950     -1.43505022017385
  H          -4.13173672291600      3.62214445761201     -0.19547469076211
  H          -5.00753295780421      2.35466607386476     -1.06105800889881
  H          -3.88825806065738      3.05757202485039     -3.20295611926348
  H          -3.02110882654178      4.31155642115017     -2.34509958148596
  H          -1.10350095766545      2.65254321123094     -3.60200687608878
  H          -2.79504415249295      1.30732269071844     -0.01869457599976
  H           0.45035983805510      0.89800724484959     -2.62955072974172
