47
Coordinates from ORCA-job 1clc-2eps-charge--1 E -3371.381316039111
  C          -1.53566517256118     -2.84736519982318     -2.32151253389780
  C          -2.41184745497375     -2.31605382060236     -1.20562126269635
  S          -1.57768068908930     -2.23797153861539      0.41667309922610
  C           3.90033531439378      0.00781645806010      0.17429912201588
  C           3.01491508216868      0.14887949998898     -1.04760661680159
  S           1.80718416985666     -1.20867659417898     -1.24060112180065
  C           1.70093723553868     -2.16745158527933      2.86239044827410
  C           0.51333980333533     -1.35870283100573      3.37345134437552
  C           0.55248352617913      0.07916180104569      2.98288220588201
  N           0.37848476386573      0.49688592030412      1.68920053510115
  C           0.74240279760584      1.14792646723474      3.79986272415147
  C           0.60351557950966      1.87942423854893      1.66496393987335
  N           0.59592915655976      2.31707195824772      3.03050096593968
  C          -4.50088894918131      3.41087227245035     -0.86489491490193
  C          -3.60523665457196      3.28276085402662     -2.08407392642622
  C          -2.48729037515582      2.32640568242829     -1.87809045265634
  N          -1.54568968242221      2.06095961816702     -2.84205330915787
  C          -2.12494170108722      1.54903569921725     -0.81450803653436
  C          -0.67070156827796      1.16405927892925     -2.35945010180260
  N          -0.99464551088989      0.83409662700911     -1.13019720268601
  Zn         -0.00991624779375     -0.55737361110447      0.06327765964568
  H          -2.08695088635373     -2.88212898998709     -3.26740076913696
  H          -1.18355379687943     -3.85672591950221     -2.09369100707354
  H          -0.65790775808207     -2.21071609446338     -2.45858235500667
  H          -3.29017936942809     -2.95453495035137     -1.08028641224577
  H          -2.77421126309069     -1.31674493534635     -1.45891259136387
  H           4.62777595384760      0.82521354423870      0.22428903910938
  H           4.44953019688823     -0.93684762647466      0.15005917460407
  H           3.30446663403288      0.02709432646445      1.08946774834025
  H           2.47463560952596      1.09834991498897     -1.00828953682315
  H           3.62760785874352      0.16706135208236     -1.95272533156502
  H           1.62500853947079     -3.21190834955896      3.17545847173784
  H           2.63994821948849     -1.76246739250754      3.24888306733009
  H           1.75087528025391     -2.14416230887220      1.77125763264187
  H          -0.41247561146988     -1.80904412157821      2.99600518552670
  H           0.47015734905199     -1.41807134799451      4.46450823564668
  H           0.86247184518307      1.18017272550416      4.87199406587562
  H           0.00912057904930      2.46667019289038      0.96171333679966
  H           1.18648087964926      3.10202556169930      3.26440645104135
  H          -5.30598894034982      4.12114669814081     -1.05824040982486
  H          -3.93813700224977      3.76459381595107      0.00203724837356
  H          -4.95213454004502      2.45069209471729     -0.60449991102213
  H          -4.19595006348576      2.96214899453094     -2.94938925489923
  H          -3.19199720826982      4.26246249878595     -2.34840297267442
  H          -1.51409890357893      2.47052858731617     -3.76280053873163
  H          -2.59946151747693      1.45583470540186      0.14877119376327
  H           0.17124949256607      0.77365082887534     -2.90923832554635
