33
Coordinates from ORCA-job Cx2Cx13Cx2C-LLHH-1dsz-cluster1 E -3719.911582822391
  C           1.26000000250156      2.41600000429380     -3.82800000498400
  C           1.35831842931617      1.45634121915705     -2.65779047286597
  S          -0.27327979458221      0.79419797663210     -2.17461974413076
  C          -0.31399999925270      3.82899999841586      1.28300000067687
  C          -0.43737548336446      2.44963257866542      1.90071445548017
  S           0.96644096568046      1.34079215361210      1.51751974991574
  C           2.10699999782746     -2.66799999887234     -2.70399999683325
  C           2.60266668210984     -2.03249311396981     -1.41904765617509
  S           1.40201487850821     -2.13125130377015     -0.04520678279054
  C          -2.62700000107631     -3.40300000383732      0.06800000114038
  C          -2.67260825223235     -1.98011441829145     -0.45369358696394
  S          -2.07880648212766     -0.74777557266006      0.75933881251571
  Zn          0.06572691383527     -0.18047523086239     -0.05219127299456
  H           2.24921007850439      2.79583913853737     -4.10347938385804
  H           0.62384983480791      3.26997644782267     -3.58111412285429
  H           0.83089773930183      1.92175724201125     -4.70358158802630
  H           1.80022455460403      1.96134613847402     -1.79449502963981
  H           2.01874012570129      0.62551105421564     -2.91720787403098
  H          -1.16490687517841      4.45968140946173      1.56259823365142
  H          -0.28274718974790      3.76319498675227      0.19197272794233
  H           0.60140730791362      4.32586214154138      1.61452539443446
  H          -1.35731439900737      1.96601656863909      1.56346983721463
  H          -0.50231349761992      2.53716583083793      2.98856496126011
  H           2.86995337512448     -2.61192572030832     -3.48817099410500
  H           1.20882233858327     -2.15976204571584     -3.06436744432382
  H           1.85677124313396     -3.72003276853439     -2.54566831656476
  H           2.85946107761698     -0.98569040205570     -1.59146231124212
  H           3.51578322181000     -2.53357235509777     -1.08698602553956
  H          -3.01686730839060     -4.10553463719389     -0.67689557254782
  H          -3.22608574259375     -3.50426167909673      0.97667141366364
  H          -1.60157052149021     -3.69499116632924      0.30790998553370
  H          -3.69818404480366     -1.71731717069747     -0.72631448442055
  H          -2.06939252888337     -1.89343025355127     -1.36089688753529
