33
Coordinates from ORCA-job 1bto-4cys-charge--2 E -3719.915056367452
  C          -2.02895848477739     -2.90339464452006     -1.42006334940671
  C          -1.14922689136977     -2.93095592110840     -0.18585321020081
  S          -1.41162855667646     -1.50084079444510      0.91992958989296
  C          -2.67236734148147      2.27129595818508      1.35488091042592
  C          -1.60924885390651      1.77604587394214      2.31366753621096
  S           0.08888611014352      1.87561567696414      1.65304953590131
  C          -1.40858364985057      2.61040190120747     -2.34985561757694
  C          -1.33988247060641      1.09627869119280     -2.36655409990431
  S           0.33366512217533      0.44299294681552     -2.04509998106682
  C           3.71842327635867      1.26547219750320      0.09947991074176
  C           3.52592957773671     -0.15432726047137     -0.39388619884870
  S           2.37447483683614     -1.13539635810087      0.62679546817553
  Zn          0.31219633525709     -0.03520861681455      0.27407343095526
  H          -1.85300037957036     -3.78535728462851     -2.04576371732704
  H          -1.82367747412954     -2.01327487496017     -2.01964030989295
  H          -3.08665359206058     -2.88714076282563     -1.14478356930999
  H          -0.09545613056413     -2.95740382895583     -0.47475294190372
  H          -1.34569024885111     -3.83798649171098      0.39201956810128
  H          -3.66773846440810      2.20777442514558      1.80823134235197
  H          -2.67709551870105      1.67261226992443      0.44110578528281
  H          -2.49121196277547      3.31162150714418      1.07310878502632
  H          -1.63300418131181      2.36666606713006      3.23356854935324
  H          -1.81421546904151      0.73959612137587      2.59204638645940
  H          -2.42787716660427      2.95915140346007     -2.55004483046946
  H          -0.74798163625217      3.03781288304665     -3.10853908601626
  H          -1.10054855700161      3.00276769671288     -1.37810017055310
  H          -1.66316966939121      0.72053702986432     -3.34113782999652
  H          -2.02598155916514      0.67869675546087     -1.62483385248410
  H           4.42684082926639      1.80908397137216     -0.53509865146952
  H           4.09911556568361      1.27520464491376      1.12400174713317
  H           2.76831033810926      1.80618347404998      0.09041557613057
  H           4.48388109941360     -0.68149854360194     -0.40343372487451
  H           3.15486216751636     -0.14129911326777     -1.42176398084100
