33
Coordinates from ORCA-job Cx2Cx13Cx2C-LLHH-1dsz-cluster1-H-only E -3719.906085420941
  C           1.25358700606189      2.41198535634732     -3.82954975116290
  C           1.23881762104126      1.56995475791505     -2.54988364761497
  S          -0.40130532732365      0.92489942472655     -2.09379666975577
  C          -0.31266932455416      3.82849006779629      1.28285888692282
  C          -0.22010312605387      2.49410849524517      2.06672897675313
  S           1.07518988353428      1.40095697327447      1.45051004704867
  C           2.10361068634689     -2.67095104106584     -2.70302549259263
  C           2.61556173339946     -2.09082022558973     -1.38127500087433
  S           1.33754267918588     -1.94016306350453     -0.10536524051513
  C          -2.62581631399739     -3.40499626967920      0.07702148541709
  C          -2.47996633061474     -1.96234357553403     -0.42730775864765
  S          -1.95724359701510     -0.75424597677149      0.84694776346829
  Zn          0.00023847399107     -0.00140835127789      0.00227596251143
  H           2.26770375469995      2.76375663031882     -4.04149188212699
  H           0.60117874199357      3.28329218214599     -3.72982378371438
  H           0.90724614588928      1.82788882079519     -4.68603784574170
  H           1.61607885419389      2.16792113317596     -1.71580081780195
  H           1.92621283755972      0.72786057402542     -2.66840359800245
  H          -1.09486806363640      4.47228545202985      1.69796472695903
  H          -0.54307550802020      3.63377113817123      0.23262609339578
  H           0.63933356019267      4.36194823769242      1.32987006944566
  H          -1.18227738506380      1.97792367005097      2.02297915794489
  H          -0.01798280357292      2.71065647413530      3.11901975856695
  H           2.91788547245882     -2.76946971526379     -3.42875943386296
  H           1.33515145477011     -2.02349524683419     -3.13316637976501
  H           1.66161516351701     -3.65752076290829     -2.54333603657041
  H           3.07172313805127     -1.11420894054896     -1.56398521842688
  H           3.40161491350046     -2.73621419040917     -0.98045976679420
  H          -2.96820347780395     -4.05689508473563     -0.73274657690517
  H          -3.35005544621344     -3.46193520067158      0.89352725490391
  H          -1.66879496099399     -3.78299005369152      0.44456733817462
  H          -3.43407687479101     -1.62550966015190     -0.84073573822616
  H          -1.74943258073288     -1.93401802920826     -1.23853488241060
