33
Coordinates from ORCA-job Cx2Cx13Cx2C-LLHH-1dsz-cluster1-H-only E -3719.906085420941
C        1.25334853       2.41339371      -3.83182571 # dw=0.00549
C        1.23857915       1.57136311      -2.55215961
S       -0.40154380       0.92630778      -2.09607263 # dw=0.00279
C       -0.31290780       3.82989842       1.28058292 # dw=0.00849
C       -0.22034160       2.49551685       2.06445301
S        1.07495141       1.40236532       1.44823408 # dw=0.00255
C        2.10337221      -2.66954269      -2.70530146 # dw=0.00917
C        2.61532326      -2.08941187      -1.38355096
S        1.33730421      -1.93875471      -0.10764120 # dw=0.00303
C       -2.62605479      -3.40358792       0.07474552 # dw=0.00707
C       -2.48020480      -1.96093522      -0.42958372
S       -1.95748207      -0.75283763       0.84467180 # dw=0.00240
Zn       0.00000000       0.00000000       0.00000000
H        2.26746528       2.76516498      -4.04376784
H        0.60094027       3.28470053      -3.73209975
H        0.90700767       1.82929717      -4.68831381
H        1.61584038       2.16932948      -1.71807678
H        1.92597436       0.72926893      -2.67067956
H       -1.09510654       4.47369380       1.69568876
H       -0.54331398       3.63517949       0.23035013
H        0.63909509       4.36335659       1.32759411
H       -1.18251586       1.97933202       2.02070320
H       -0.01822128       2.71206483       3.11674380
H        2.91764700      -2.76806136      -3.43103540
H        1.33491298      -2.02208690      -3.13544234
H        1.66137669      -3.65611241      -2.54561200
H        3.07148466      -1.11280059      -1.56626118
H        3.40137644      -2.73480584      -0.98273573
H       -2.96844195      -4.05548673      -0.73502254
H       -3.35029392      -3.46052685       0.89125129
H       -1.66903343      -3.78158170       0.44229138
H       -3.43431535      -1.62410131      -0.84301170
H       -1.74967105      -1.93260968      -1.24081084
