47
Coordinates from ORCA-job Cx2Cx66Hx50H-LLLL-1z84-cluster1-H-only E -3371.332314472907
  C           1.42623374366403      3.33778893241516      1.26668621897323
  C           0.09046843336972      2.87357085320191      1.89237752524679
  S          -0.00898863920781      1.05585320966132      2.05861488288811
  C           3.59382508878607     -1.35682594883006     -0.31490803816419
  C           3.30031933026629     -0.23385612300046     -1.30052974043790
  S           1.55480576160160      0.05492228523233     -1.70706929884019
  C          -1.69278397064150     -1.81817614581384     -2.89287888716655
  C          -1.37355001722686     -0.33166278799537     -3.09154876413544
  C          -2.13052418013792      0.54807526781236     -2.16317164795434
  N          -1.73023223492648      0.78143747989516     -0.85419707318703
  C          -3.29691296027639      1.21872266756993     -2.33480579132721
  C          -2.61402324302968      1.58682089255332     -0.27981130323239
  N          -3.57323735482035      1.85642699098715     -1.15179859596479
  C          -3.86382356075554     -1.83487040039479      1.60368777337597
  C          -2.40491511950008     -1.59243950885443      2.00736143224117
  C          -1.40510238686607     -2.47205318604811      1.31914760024087
  N          -0.48413032500356     -1.98488545548669      0.41114811578982
  C          -1.17015392529498     -3.80510597657620      1.41599530554065
  C           0.26842663585240     -2.97899426635729     -0.02308649011431
  N          -0.12579635940589     -4.09195185497744      0.57005989642060
  Zn         -0.00038721655128     -0.00276143623938      0.00096038151699
  H           1.46910229542856      4.42995824413447      1.20609269198063
  H           1.53162804979775      2.92987428449072      0.25891022227536
  H           2.26864721542311      2.98776012199983      1.86660891540675
  H          -0.74609159395213      3.23810396401835      1.29257977479160
  H          -0.01905327531905      3.28073118264876      2.89907297660651
  H           4.66837942174576     -1.41523017336076     -0.11710842404998
  H           3.26986703567127     -2.32311558508909     -0.70763407110198
  H           3.07948211923085     -1.18579470159392      0.63413348421887
  H           3.73014095583205      0.69707717060119     -0.92068104202985
  H           3.78737968632125     -0.44036460915740     -2.25613332525367
  H          -1.07683605835773     -2.43232198132498     -3.55395989694860
  H          -2.74278877888228     -2.02020699110658     -3.11730089041718
  H          -1.50014891878154     -2.12502282999323     -1.86569654251642
  H          -1.63151720594125     -0.04425820422057     -4.11489183195602
  H          -0.30503405673178     -0.16320232359705     -2.97573103809766
  H          -3.94857392664418      1.31303614505034     -3.18802228389888
  H          -2.57409034979838      1.94244363021602      0.73667643927999
  H          -4.37372443234873      2.44480570262416     -0.98041065304302
  H          -4.52234968539538     -1.15921532399900      2.15323544207453
  H          -4.16929050204188     -2.86114299650829      1.81898103841413
  H          -4.00503495030228     -1.65564933268831      0.53470337641462
  H          -2.12690076960559     -0.55633183390949      1.81301993594402
  H          -2.30776135954198     -1.73650697042270      3.08773899936911
  H          -1.64362651048350     -4.57670382908338      2.00065257182058
  H           1.06613280199464     -2.89969903674275     -0.74215846058366
  H           0.26813229278672     -5.00867821174087      0.42442608959033
