37
Coordinates from ORCA-job Cx2Cx2Cx7C-LLHL-1a71-cluster2-H-only E -3776.438836949391
  C          -1.57133172981788     -1.32067562506292      3.42953645599352
  C          -1.37552067728336      0.18728465411134      3.25002648931169
  S          -1.53256708285503      0.77108782678074      1.53708857973114
  N          -2.77444857718848     -2.37660269901600      1.60293062383896
  C          -2.79438728673699      2.32837566962358     -2.12750489391566
  C          -1.34285510191210      2.63228606666363     -1.75725391553923
  S          -0.17921078848698      1.24218394183056     -1.83246690888748
  C          -1.25259489489621     -2.67232468973419     -3.25527355463911
  C          -1.69130206527428     -2.33572736235892     -1.82578334555661
  S          -0.33053418297530     -2.13268405978059     -0.61667202405566
  C           3.66105088102348     -0.30287150184285     -0.95242599592714
  C           3.24959368990505     -0.85850826179049      0.41513050048241
  S           1.86329735000206     -0.00414008042841      1.18761834417189
  Zn         -0.01301880054639     -0.02536035051355      0.01600859543776
  H          -1.21741444940737     -1.55814386867443      4.44600094845456
  H          -0.92362069953125     -1.87129982006352      2.75633463085444
  H          -2.60086727766698     -1.61802060461394      3.37052650624210
  H          -2.11055805168139      0.73593997345795      3.84371053397301
  H          -0.38634951074810      0.47240841507791      3.61699989930160
  H          -2.28735498795103     -1.53646885866503      1.29794107813726
  H          -2.05392624504355     -3.05408222647657      1.81393897894383
  H          -3.19188710992937     -2.73735722492464      0.74259327167200
  H          -3.39958346067423      3.23862414422012     -2.07212572553004
  H          -3.22171379192259      1.58877273069843     -1.44513434834676
  H          -2.86357903360628      1.92924447253270     -3.14275266561970
  H          -1.31422884895281      3.05639490959913     -0.74967416667343
  H          -0.95736199528105      3.40242888659482     -2.43097480374627
  H          -2.12639515502188     -2.81039097968055     -3.90045771508352
  H          -0.66188628608023     -3.59163163545934     -3.27556652675934
  H          -0.64078093947943     -1.86793096205539     -3.67063799588104
  H          -2.34727747305158     -3.12564294517825     -1.45034321579902
  H          -2.27771294051960     -1.41226755351549     -1.83484824800265
  H           4.51922868991135     -0.85170195049788     -1.35333884743360
  H           3.93005003339219      0.75359117834995     -0.87617137182583
  H           2.83501684896006     -0.38946790275769     -1.66289307458387
  H           4.09420284050733     -0.79432208579447      1.10624285046114
  H           3.00691911082024     -1.91998762065572      0.31044805679864
