47
Coordinates from ORCA-job 2lce E -3371.343299930810
  C          -3.17100000054696      1.26100000063326      3.60699999889759
  C          -1.91790312398313      0.81523379818496      2.88242587254049
  S          -1.36374555998982      2.06354811791863      1.66620472080264
  C          -3.72300000302742     -0.10799999881093     -1.75900000134079
  C          -2.76204049677087     -0.58091890396800     -0.69050581874209
  S          -1.02446577209842     -0.56400245699541     -1.25987354885183
  C           4.81200000468172     -2.25200000211092      3.38500000252106
  C           3.60405749254340     -1.55444305817071      4.00231434392569
  C           2.52272066083211     -1.31269092840134      3.01599593257987
  N           1.79951883267123     -2.32508334131496      2.43484748005911
  C           2.05300995662397     -0.17024912702457      2.43485257835413
  C           0.94411817367777     -1.79546884248016      1.54873846814089
  N           1.07500444799796     -0.48696187572276      1.52338583105556
  C           5.60799999889266      3.67400000028859     -0.88700000007786
  C           4.22469019468281      4.30207395923619     -0.74817219899322
  C           3.12173502278759      3.31582846038109     -0.86595704328030
  N           2.82420434380479      2.65432959570046     -2.03207536650350
  C           2.23098513287825      2.82960219350310      0.04693902708956
  C           1.80142911738114      1.81741467747961     -1.81029359316361
  N           1.41709328365267      1.89894317524113     -0.55405539437685
  Zn         -0.03521324345619      0.76417234392924      0.32948252328156
  H          -3.47734926194214      0.51307000670810      4.34496900890405
  H          -3.99604194017367      1.40617424840017      2.90528069526564
  H          -3.00587153129880      2.20596329755547      4.13106839432680
  H          -1.10945585286848      0.63651625787363      3.59520723222965
  H          -2.10090953496216     -0.12795820186849      2.36262478359434
  H          -4.75721228777843     -0.16106235056799     -1.40254752712617
  H          -3.64417518033165     -0.72140812675454     -2.66032340946183
  H          -3.51176598150824      0.92703447747086     -2.03926510818772
  H          -2.83959331224700      0.05897118606208      0.19090711269700
  H          -3.00997478778453     -1.59952780446680     -0.38242485490636
  H           5.58836687310721     -2.41072337857964      4.13613602918995
  H           5.23381575408953     -1.65089099515083      2.57659116061885
  H           4.53718554923749     -3.22638609033664      2.97436557139526
  H           3.21595236282456     -2.15267488246022      4.83297432249954
  H           3.89923493032067     -0.58911414952074      4.41856451477165
  H           1.89208352804638     -3.30846645822649      2.63851359485636
  H           2.35789052278394      0.84886379843273      2.61134668325279
  H           0.25708761636030     -2.36776140384035      0.94581819869504
  H           6.38385565398565      4.43641516142404     -0.79415563843418
  H           5.72551783113407      3.19053803936632     -1.85960619174164
  H           5.77139628948268      2.92105846849536     -0.11288671670891
  H           4.09666185477589      5.08200633320926     -1.50584237683106
  H           4.13041359190764      4.78934799288210      0.22446020630559
  H           3.29130473580259      2.77919975282361     -2.91724340131602
  H           2.12389370552430      3.08970616653439      1.08787946924108
  H           1.36649524411944      1.18137534494440     -2.56482902053087
