47
Coordinates from ORCA-job CCx39Hx26H-LLLH-2eg3-cluster1-H-only E -3371.327478148665
  C           4.04908903605083     -0.65621155842016     -0.49174726417825
  C           3.37248312135112     -0.61905872745199      0.88251439334729
  S           2.03184700912064      0.63936356559690      0.98278476255531
  C           1.66267794328695     -0.68755491016324     -3.48775418989250
  C           0.49065216905514      0.29383288498258     -3.51691889587699
  S          -0.73957700208034     -0.00882597860316     -2.18412228769545
  C          -5.21409488613351      3.25450850374420      1.06195943463064
  C          -3.86610080551891      3.94712724354193      1.37321534205963
  C          -2.69191127938146      3.01585796547197      1.34949850348112
  N          -1.81843227834082      2.90166909178981      2.41230814579062
  C          -2.26252097715882      2.13116846945634      0.41597375074692
  C          -0.90690731139429      1.98649643493313      2.13930586970820
  N          -1.15039403694524      1.50376360990292      0.93588606174972
  C          -3.79676936518042     -1.71622118974801     -0.70481519859535
  C          -3.19299042308812     -1.47762969036530      0.68348163043961
  C          -1.98899321769534     -2.31965776502423      0.96200891975350
  N          -0.70382232006648     -1.88660545415731      0.70758513939695
  C          -1.87505850622032     -3.58694810674451      1.41921682796938
  C           0.15091763030536     -2.84997483643598      0.99940366268918
  N          -0.53368142202930     -3.89562974517497      1.43214602173454
  Zn         -0.00122302544231     -0.00034263979436     -0.00119044310082
  H           4.96298560294985     -1.25853517661748     -0.45247304782908
  H           4.31196785810323      0.35032804860945     -0.82172606879021
  H           3.38860775077710     -1.10460542771765     -1.23095802409459
  H           4.09517371582449     -0.33211028781498      1.64911017445635
  H           2.98938142343360     -1.60321437836564      1.15223180937187
  H           2.34616519928227     -0.50218799371076     -4.32284340047285
  H           1.30778069687828     -1.71851764851946     -3.55096407256111
  H           2.21654787336798     -0.57182703343423     -2.55971724087356
  H          -0.06729719384753      0.20427488678830     -4.45077979834756
  H           0.85742663308239      1.31998714594743     -3.44695114128722
  H          -6.02427369627676      3.98514638665354      1.08851647385282
  H          -5.42368193637116      2.47277016612472      1.79476058203754
  H          -5.19509525000932      2.79842083722472      0.07024058847118
  H          -3.91838271620615      4.42061822572148      2.35669630869879
  H          -3.70337340405403      4.75230842393191      0.65051650096644
  H          -1.88311699456845      3.43499275116949      3.26607538432061
  H          -2.64551290110516      1.89465631144257     -0.56237194616095
  H          -0.09809659446887      1.69303991600347      2.78802656655372
  H          -4.66461039193956     -1.07007453912066     -0.85498474412579
  H          -4.11845060332538     -2.75429398402042     -0.81372364884622
  H          -3.06632145355689     -1.49627053250801     -1.48624904003726
  H          -3.94742376403220     -1.68511456710220      1.44690413288476
  H          -2.91237277418405     -0.42912039378663      0.79161435457224
  H          -2.61415365881147     -4.30321032709148      1.73915206310587
  H           1.22260848809958     -2.81044751044661      0.90544986200787
  H          -0.14348296153613     -4.77559746669742      1.73165718541308
