47
Coordinates from ORCA-job CCx39Hx26H-LLLH-2eg3-cluster1-H-only E -3371.327478148665
C        4.05031206      -0.65586892      -0.49055682
C        3.37370615      -0.61871609       0.88370484
S        2.03307003       0.63970621       0.98397521 # dw=0.00287
C        1.66390097      -0.68721227      -3.48656375
C        0.49187519       0.29417552      -3.51572845
S       -0.73835398      -0.00848334      -2.18293184 # dw=0.00264
C       -5.21287186       3.25485114       1.06314988 # dw=0.00739
C       -3.86487778       3.94746988       1.37440579
C       -2.69068825       3.01620061       1.35068895 # dw=0.00365
N       -1.81720925       2.90201173       2.41349859
C       -2.26129795       2.13151111       0.41716419
C       -0.90568429       1.98683907       2.14049631
N       -1.14917101       1.50410625       0.93707650 # dw=0.00328
C       -3.79554634      -1.71587855      -0.70362476 # dw=0.01058
C       -3.19176740      -1.47728705       0.68467207
C       -1.98777019      -2.31931513       0.96319936
N       -0.70259929      -1.88626281       0.70877558 # dw=0.00352
C       -1.87383548      -3.58660547       1.42040727 # dw=0.00393
C        0.15214066      -2.84963220       1.00059411
N       -0.53245840      -3.89528711       1.43333646
Zn       0.00000000       0.00000000       0.00000000
H        4.96420863      -1.25819254      -0.45128260
H        4.31319088       0.35067069      -0.82053563
H        3.38983078      -1.10426279      -1.22976758
H        4.09639674      -0.33176765       1.65030062
H        2.99060445      -1.60287174       1.15342225
H        2.34738822      -0.50184535      -4.32165296
H        1.30900372      -1.71817501      -3.54977363
H        2.21777090      -0.57148439      -2.55852680
H       -0.06607417       0.20461753      -4.44958936
H        0.85864966       1.32032979      -3.44576070
H       -6.02305067       3.98548903       1.08970692
H       -5.42245891       2.47311281       1.79595103
H       -5.19387222       2.79876348       0.07143103
H       -3.91715969       4.42096087       2.35788675
H       -3.70215038       4.75265106       0.65170694
H       -1.88189397       3.43533539       3.26726583
H       -2.64428988       1.89499895      -0.56118150
H       -0.09687357       1.69338256       2.78921701
H       -4.66338737      -1.06973190      -0.85379430
H       -4.11722758      -2.75395134      -0.81253321
H       -3.06509843      -1.49592789      -1.48505860
H       -3.94620074      -1.68477193       1.44809458
H       -2.91114975      -0.42877775       0.79280480
H       -2.61293063      -4.30286769       1.74034251
H        1.22383151      -2.81010487       0.90664031
H       -0.14225994      -4.77525483       1.73284763
