47
Coordinates from ORCA-job 3r6f-H-only E -3371.337839636533
C       -2.49341347       2.45467208       2.99677011 # dw=0.00527
C       -1.40640181       2.04809797       2.01001932
S       -1.97316076       0.94297168       0.73772762 # dw=0.00259
C       -0.36207866      -2.51426675       3.11158332 # dw=0.00925
C        0.56351896      -1.29952266       3.14317168
S        1.42383404      -0.98325275       1.54193082 # dw=0.00268
C        3.17184251      -0.56270683      -2.84272305 # dw=0.01200
C        3.08396088       0.10220189      -1.47218549
C        2.35169354       1.40817299      -1.46844419
N        1.09258105       1.55236736      -0.92602119 # dw=0.00336
C        2.71057598       2.63509537      -1.91916236
C        0.70932127       2.81298138      -1.04312467
N        1.68554978       3.49519249      -1.61797762
C       -1.87759614       0.79919843      -4.19834831 # dw=0.00714
C       -1.90018833       0.19697649      -2.77989093
C       -1.11596233      -1.07919156      -2.63857682
N       -0.40301430      -1.39114734      -1.49545229 # dw=0.00311
C       -0.97690494      -2.13764478      -3.46943230
C        0.16349785      -2.57576582      -1.64917946
N       -0.16746499      -3.04727748      -2.83878081
Zn       0.00000000       0.00000000       0.00000000
H       -2.09423736       3.15005660       3.74061517
H       -2.89095087       1.58150287       3.52058688
H       -3.32461995       2.94481077       2.48269842
H       -0.99214826       2.95147424       1.55157347
H       -0.58290185       1.58320022       2.55895883
H       -0.82037183      -2.67503491       4.09277798
H        0.19026466      -3.41574878       2.83697156
H       -1.16057533      -2.36863404       2.38009095
H        0.00440880      -0.40684277       3.42891897
H        1.35521387      -1.44290936       3.88099371
H        3.71110637      -1.50963045      -2.77284710
H        3.69650985       0.07727417      -3.55547276
H        2.17469444      -0.76662024      -3.24141883
H        4.09397509       0.26726161      -1.08656151
H        2.59219631      -0.56814085      -0.76509457
H        3.60958728       2.98659574      -2.39871254
H       -0.23120170       3.22379775      -0.71429174
H        1.66683144       4.47870714      -1.83924259
H       -2.47287384       1.71334916      -4.22481208
H       -2.29083973       0.10338558      -4.93171419
H       -0.85552472       1.04253288      -4.49680315
H       -2.93626824       0.01214522      -2.47817136
H       -1.50539014       0.92051498      -2.06540309
H       -1.36205666      -2.32795431      -4.45765784
H        0.79840018      -3.07168513      -0.93317541
H        0.11652526      -3.93637549      -3.21980948
