47
Coordinates from ORCA-job 3r6f-H-only E -3371.337839636533
  C          -2.49574288175216      2.45097327868421      2.99409823992357
  C          -1.40873121598609      2.04439916450116      2.00734744657967
  S          -1.97549016675299      0.93927287220911      0.73505574661041
  C          -0.36440807237024     -2.51796555663766      3.10891144604653
  C           0.56118955491137     -1.30322146518939      3.14049980882270
  S           1.42150463325648     -0.98695155596112      1.53925894296615
  C           3.16951310532632     -0.56640563330332     -2.84539492803814
  C           3.08163147492211      0.09850308319985     -1.47485736279051
  C           2.34936412691043      1.40447419073790     -1.47111606465508
  N           1.09025163613441      1.54866855606941     -0.92869306211100
  C           2.70824657497942      2.63139656844210     -1.92183423074679
  C           0.70699186217863      2.80928258000891     -1.04579654862340
  N           1.68322037195346      3.49149368245973     -1.62064949851073
  C          -1.87992554601322      0.79549962893626     -4.20102018020648
  C          -1.90251773882244      0.19327768836595     -2.78256280435100
  C          -1.11829173878824     -1.08289036643280     -2.64124869754790
  N          -0.40534370770072     -1.39484614349535     -1.49812416500737
  C          -0.97923435203760     -2.14134358313998     -3.47210417884584
  C           0.16116844398662     -2.57946462122799     -1.65185133884843
  N          -0.16979439889620     -3.05097628354755     -2.84145267960304
  Zn         -0.00232940900159     -0.00369880363934     -0.00267187427525
  H          -2.09656677372320      3.14635780096048      3.73794329460066
  H          -2.89328027888463      1.57780406578641      3.51791501044409
  H          -3.32694936261226      2.94111196299536      2.48002654393505
  H          -0.99447766760078      2.94777544004877      1.54890159669798
  H          -0.58523125653531      1.57950142052484      2.55628695336370
  H          -0.82270123984753     -2.67873371454788      4.09010611038935
  H           0.18793525097539     -3.41944758642384      2.83429968732359
  H          -1.16290474107982     -2.37233284800078      2.37741907637678
  H           0.00207938625580     -0.41054157776634      3.42624709776630
  H           1.35288446324686     -1.44660816223548      3.87832183171640
  H           3.70877695678418     -1.51332925689330     -2.77551897389393
  H           3.69418044017757      0.07357536266724     -3.55814462930829
  H           2.17236502716033     -0.77031903969665     -3.24409070160290
  H           4.09164568332234      0.26356280366281     -1.08923338177416
  H           2.58986689912148     -0.57183965254693     -0.76776644900440
  H           3.60725787346505      2.98289693588138     -2.40138441008855
  H          -0.23353110566312      3.22009895036430     -0.71696361840907
  H           1.66450203569649      4.47500834041022     -1.84191446647963
  H          -2.47520325070801      1.70965036103874     -4.22748395060803
  H          -2.29316913745028      0.09968678066633     -4.93438606704644
  H          -0.85785412575219      1.03883407566683     -4.49947501940043
  H          -2.93859764651820      0.00844641365077     -2.48084323328581
  H          -1.50771954731440      0.91681617877102     -2.06807496405066
  H          -1.36438606840365     -2.33165311096264     -4.46032971758785
  H           0.79607077403412     -3.07538393419928     -0.93584728604481
  H           0.11419585541599     -3.94007429086247     -3.22248135081699
