37
Coordinates from ORCA-job Cx2Cx2Cx7C-LLLL-1axe-cluster2 E -3776.488674241055
  C          -1.52400000012738     -1.31300000050213      3.40699999785957
  C          -1.20028111412356      0.13457780014831      3.09327277952992
  S          -1.84532988229488      0.71619782811301      1.48575960173526
  N          -3.75563967319114     -3.11444507403502      1.02223560451903
  C          -2.98300000072136      2.37200000023991     -2.17000000013637
  C          -1.56014098625100      2.52596969547254     -1.66536486285037
  S          -0.49380055280246      1.09237092876040     -2.04931490814027
  C          -1.33599999965700     -2.67599999928896     -3.34299999749689
  C          -1.91813038054918     -2.44397393239125     -1.96399812915399
  S          -0.65784510572765     -2.46247562800185     -0.64431923780723
  C           3.75700000050573     -0.24700000044883     -1.00900000022630
  C           2.86270888311804     -1.12307893724287     -0.15266617605480
  S           1.78735673026477     -0.18492778070227      0.98850523514150
  Zn         -0.33063396699987     -0.18660378730845     -0.07164323185334
  H          -1.12599582007344     -1.59691798814905      4.38715121063401
  H          -1.09013240894871     -1.97842470464902      2.65655675530251
  H          -2.60425790674512     -1.47750136533232      3.41609743570444
  H          -1.62394976276160      0.78595725652039      3.86242468740124
  H          -0.11814579508834      0.28228137910237      3.10405336821046
  H          -2.81566478860117     -2.89829349761453      0.68720625449077
  H          -3.66625060413937     -3.29549833527721      2.01619370787529
  H          -4.01117953727777     -3.99932384262535      0.59680132992667
  H          -3.57782836207657      3.26218114524044     -1.93804623671018
  H          -3.46628122745277      1.50831588009100     -1.70535909543218
  H          -3.00103308490253      2.22271102445693     -3.25258359665917
  H          -1.56177596130269      2.67454040717011     -0.58336274484585
  H          -1.10134889268796      3.41018448558699     -2.11582881427806
  H          -2.12312230249607     -2.68134615418485     -4.10518512991809
  H          -0.81093094372788     -3.63361018847428     -3.38943850419524
  H          -0.62191896065714     -1.88848410395365     -3.59622673505133
  H          -2.65760065989841     -3.21678761615283     -1.73719884892375
  H          -2.43375591768263     -1.48131214941622     -1.93520042361849
  H           4.39636658750506     -0.85724047860791     -1.65626157071515
  H           4.40191922943349      0.38002855658838     -0.38802433113373
  H           3.16128907046693      0.41375124645852     -1.64455605882497
  H           3.47662141311865     -1.79814051877570      0.44982763801243
  H           2.22340298911333     -1.74678994395653     -0.78237076472342
