47
Coordinates from ORCA-job Cx15CHx15H-LLLL-1ia6-cluster1 E -3371.343682514009
  C           0.33999999990489      1.05100000016302      3.28800000018121
  C           1.36057172286922      1.68008667813315      2.36557762946446
  S           1.85538639205079      0.59431628763928      0.98784080302347
  C          -1.45000000010640     -3.96200000197629      0.84700000013709
  C          -1.89286802823056     -2.75896047803384      0.03638775774065
  S          -1.80752427408211     -1.19685660999001      0.98305338056332
  C           1.93399999964668     -4.02099999905745     -0.92199999999787
  C           1.70459078475192     -2.53176311821125     -0.77089158655002
  C           1.04249363719163     -1.89884932643454     -1.94265870147858
  N           0.29371441616077     -0.75131679336422     -1.80439565765700
  C           1.03157988617867     -2.25554460374154     -3.26108976486141
  C          -0.15280301768331     -0.42361740254343     -3.00071555273455
  N           0.27598766664455     -1.31025004134704     -3.90413161472768
  C           0.39500000055483      6.03000000087072     -0.32900000032042
  C          -1.00653795040431      5.60486257161189     -0.73272927448645
  C          -1.19952136421748      4.13375378820038     -0.65852443590016
  N          -2.42959235751134      3.53022692462575     -0.75439013080218
  C          -0.32028223809756      3.10582476847553     -0.47646745612818
  C          -2.27630641133376      2.20419198948644     -0.62648193991136
  N          -1.00436976774464      1.91355602547791     -0.45664359098202
  Zn         -0.16839792526718      0.09853301803507     -0.00779835431705
  H           0.10807326324453      1.71933675454638      4.12426554527294
  H           0.70936637688648      0.10727926863841      3.69653520491657
  H          -0.59056571728483      0.83941783475688      2.75612948553008
  H           0.97150078115450      2.61828195065106      1.96220465051122
  H           2.27155124135569      1.92272394900308      2.91850817904282
  H          -1.53384267556748     -4.87951056287829      0.25516040023687
  H          -2.06717359878389     -4.07711349289967      1.74142797776948
  H          -0.41138656116032     -3.85748341485014      1.16864261288988
  H          -2.92760792874215     -2.89160913987401     -0.28855729428261
  H          -1.28698254610388     -2.66349442963104     -0.86592192411651
  H           2.41425390027695     -4.42515441041360     -0.02906496941591
  H           2.57947766897295     -4.24263198906490     -1.77565709058932
  H           0.98966880880959     -4.55003117497146     -1.06905767264433
  H           1.08691035675497     -2.33875382419778      0.11086645378380
  H           2.65584616315685     -2.02398448111626     -0.57719941751326
  H           1.48252095042672     -3.07982135167296     -3.78678413992873
  H          -0.77804293049334      0.42333944073721     -3.23447964422271
  H           0.07023196639742     -1.28740107869061     -4.89065657935337
  H           0.49500570693114      7.11446342037400     -0.39233314879018
  H           1.14766816677896      5.58435862280189     -0.98332137465040
  H           0.61683932057009      5.72576650801969      0.69633322892988
  H          -1.74560915836645      6.09012413405392     -0.08671073251576
  H          -1.22294532906198      5.94865763179236     -1.75043329434975
  H          -3.30986086724721      4.00468314439747     -0.88660659102933
  H           0.74920140504595      3.13520386329878     -0.34888674999686
  H          -3.08926063241920      1.49623758114477     -0.64917040104015
