33
Coordinates from ORCA-job Cx5Cx9Cx2C-LLHH-1dsz-cluster2 E -3719.912204545732
  C          -3.32400000001190     -2.02599999587609      1.79099999666256
  C          -3.36207120388753     -0.65230315225457      1.15340974407634
  S          -2.02050051758215      0.45454774512203      1.70625970979737
  C           2.69199999661854      3.03799999945948     -1.08399999974151
  C           2.28206319291239      1.61166852958590     -0.78043020887573
  S           1.47754841012572      1.44782118131690      0.85009166206492
  C           2.84500000493032     -3.81100000416830      0.18499999933597
  C           2.32340057204302     -2.40232874368245      0.39291167613771
  S           0.60515604173842     -2.38170711505334      1.01587974165496
  C           0.25499999846304     -1.40899999941509     -4.09799999625702
  C           0.49253159830831     -1.22841582487137     -2.61337775500849
  S          -0.77509030739209     -0.17238483205899     -1.83761486821308
  Zn         -0.15508869589258     -0.21470224419939      0.43644786884372
  H          -4.15780123300498     -2.64400884948691      1.44025595938160
  H          -3.38746402738730     -1.95297768236187      2.87964949128719
  H          -2.39151888312037     -2.54066594139050      1.54382744089263
  H          -3.30841572697553     -0.74272372828918      0.06561868275501
  H          -4.30825002598732     -0.15787747934964      1.38957359443604
  H           3.18679594393089      3.10139430554895     -2.05916602952389
  H           3.38465218040476      3.42092497911289     -0.32951363509420
  H           1.82037039368061      3.69741219891758     -1.10143743158282
  H           3.15588911721059      0.95509788641814     -0.81522736405506
  H           1.57370917757804      1.25650284619865     -1.53294636091349
  H           3.88181265808339     -3.79375031825060     -0.16648213640574
  H           2.24294491089128     -4.34384093060406     -0.55562191203407
  H           2.81219544051220     -4.38286009555290      1.11622074924406
  H           2.96013531802090     -1.86773144151744      1.10262810263788
  H           2.36249831055908     -1.84914328416937     -0.54714369805367
  H           1.02585794798353     -2.04786445729173     -4.54133405940986
  H           0.27275743866070     -0.44713833078594     -4.61720029237162
  H          -0.71780088757847     -1.87122833934805     -4.28568500680106
  H           1.47670266263955     -0.78188207220959     -2.44785358257920
  H           0.49358415508368     -2.19576256411731     -2.10455636007975
