33
Coordinates from ORCA-job Cx4C-Cx4C-LS-LL-1dmk-cluster1-H-only E -3719.901101058404
C        4.71989268      -0.10104912      -0.66972992 # dw=0.00593
C        3.28213635      -0.64801019      -0.59432882
S        2.05388599       0.61333267      -1.00943269 # dw=0.00306
C        1.73950151       1.89580688       2.62448315 # dw=0.00866
C        0.25806128       1.58405492       2.87768577
S       -0.73664640       1.75316747       1.37750459 # dw=0.00296
C        1.31897093      -4.33948132       1.59868335 # dw=0.00574
C        1.37205601      -2.83077930       1.32742302
S       -0.19865149      -1.89065126       1.28857456 # dw=0.00259
C       -0.79287333      -2.88689460      -2.36761647 # dw=0.00912
C       -0.79483308      -1.41524747      -2.79484811
S       -1.56918974      -0.18727194      -1.70790567 # dw=0.00279
Zn       0.00000000       0.00000000       0.00000000
H        5.44457670      -0.88253390      -0.42046928
H        4.84814415       0.72723307       0.03115904
H        4.94482540       0.26799227      -1.67383632
H        3.17822191      -1.50881821      -1.26012409
H        3.10097695      -0.99997631       0.42067790
H        2.32843307       1.78333019       3.54165425
H        1.85881347       2.91955029       2.26092238
H        2.13869219       1.22546504       1.86077672
H        0.15805933       0.56282593       3.25609589
H       -0.14820454       2.25982996       3.63457886
H        2.33374444      -4.74630358       1.58630586
H        0.73000748      -4.85548015       0.83578191
H        0.87383687      -4.55914718       2.57320719
H        2.03062766      -2.36617702       2.06671079
H        1.85222873      -2.69160520       0.35881288
H       -0.29935821      -3.49319021      -3.13327221
H       -1.81199431      -3.26088536      -2.23524886
H       -0.26652137      -3.01297171      -1.41937583
H       -1.29191617      -1.33362907      -3.76620831
H        0.24209422      -1.10064099      -2.95250287
