33
Coordinates from ORCA-job Cx4C-Cx4C-LS-LL-1dmk-cluster1-H-only E -3719.901101058404
  C           4.71301266239306     -0.09755571552123     -0.66749160281639
  C           3.27525633359203     -0.64451678680911     -0.59209050542612
  S           2.04700597263053      0.61682607898979     -1.00719437880741
  C           1.73262149054271      1.89930029022667      2.62672146543146
  C           0.25118126294161      1.58754832650467      2.87992408224429
  S          -0.74352642112591      1.75666087775121      1.37974290376355
  C           1.31209091208626     -4.33598791768159      1.60092166128559
  C           1.36517599277662     -2.82728588961557      1.32966133481323
  S          -0.20553151302703     -1.88715785119319      1.29081287816374
  C          -0.79975335207125     -2.88340119818645     -2.36537815906926
  C          -0.80171310519902     -1.41175406438110     -2.79260979756304
  S          -1.57606975846297     -0.18377853171746     -1.70566735901119
  Zn         -0.00688002020422      0.00349340593727      0.00223831365061
  H           5.43769667643876     -0.87904049485198     -0.41823096964097
  H           4.84126413239398      0.73072647221397      0.03339735703872
  H           4.93794537938478      0.27148567839028     -1.67159800382762
  H           3.17134188682341     -1.50532480476542     -1.25788578125947
  H           3.09409693027147     -0.99648290020440      0.42291621652590
  H           2.32155305173236      1.78682359348240      3.54389256250561
  H           1.85193344905386      2.92304369879763      2.26316069350065
  H           2.13181217082592      1.22895844480713      1.86301503385342
  H           0.15117930831309      0.56631933519161      3.25833420251969
  H          -0.15508456165101      2.26332336298861      3.63681717568662
  H           2.32686441533301     -4.74281016951039      1.58854417274698
  H           0.72312746351246     -4.85198674643619      0.83802021970248
  H           0.86695685037397     -4.55565376922737      2.57544550176327
  H           2.02374764340339     -2.36268361731562      2.06894909987870
  H           1.84534870727530     -2.68811179497975      0.36105119750855
  H          -0.30623823344011     -3.48969679954891     -3.13103389384868
  H          -1.81887433398337     -3.25739195775363     -2.23301054738765
  H          -0.27340139502721     -3.00947830518225     -1.41713751865402
  H          -1.29879619510864     -1.33013566557070     -3.76396999392390
  H           0.23521419720212     -1.09714758482891     -2.95026456134735
