47
Coordinates from ORCA-job Cx4Cx12Hx3H-LLHH-1a1h-cluster1-H-only E -3371.279772745550
  C          -3.73746474329833     -2.81068602027849      0.31777194996328
  C          -2.81216462018091     -1.70515133854905     -0.19033999601941
  S          -1.13806185819380     -1.71921361996943      0.47042031948730
  C          -0.89024505854349      2.74388240161959      2.91346734872417
  C          -0.51789564939362      1.83311526842926      1.74239726260385
  S           0.94666254559679      2.37996352343713      0.82119789225491
  C           1.15097945705535     -1.72878954627577     -6.27390732098244
  C          -0.13634028386391     -1.05552804831151     -5.83671075192155
  C          -0.08146481857707     -0.48852240364627     -4.45770811152258
  N           0.63093348818471      0.64987630223424     -4.14878896471385
  C          -0.64806360794948     -0.90386548057065     -3.29963473710900
  C           0.49896819362810      0.91277759675030     -2.86276522062509
  N          -0.27242812905072     -0.01567027143808     -2.32467204177769
  C           6.16537127354015     -2.72905110529791     -0.51664288680747
  C           4.85768242711085     -3.09980630659848      0.18953730381883
  C           3.86505721108221     -1.97937078542445      0.26469995009785
  N           4.15944879889782     -0.76221420709334      0.83968034701478
  C           2.58194628256867     -1.89109102165685     -0.15911490152443
  C           3.10099110139784      0.02618660436418      0.76884629397181
  N           2.12927912332017     -0.63335373907886      0.16697307889480
  Zn          0.00589483819208      0.00044458260828     -0.00271152588073
  H          -4.71220760407818     -2.71129817531170     -0.16541108295628
  H          -3.87745843128711     -2.74447344243900      1.39926097091159
  H          -3.33779906705695     -3.80123369462789      0.08639992121056
  H          -3.26730719458875     -0.73822446272754      0.03667902723472
  H          -2.75302487400933     -1.76803108541367     -1.27953658317745
  H          -1.77057669668230      2.36322859477327      3.44049335139389
  H          -1.10872987755528      3.75455965913446      2.55891010056318
  H          -0.06151538858504      2.80527287297232      3.62339826487737
  H          -0.35684593353379      0.83532786331506      2.16893875097290
  H          -1.38851200724216      1.76902119358067      1.07959527647371
  H           1.05082138416508     -2.12922885826708     -7.28496879744907
  H           1.40662435267116     -2.55313474966213     -5.60414401680305
  H           1.98644682808478     -1.02439598587988     -6.27347260614634
  H          -0.95831297411895     -1.77469175310910     -5.86043379442273
  H          -0.39684112073188     -0.26102214700774     -6.54372774865250
  H           1.15765277234912      1.19434551788890     -4.81513066810949
  H          -1.27446774335675     -1.75800822021732     -3.10304101839340
  H           0.94947323619937      1.74418455401249     -2.34355863442634
  H           6.83642966548365     -3.58951102525643     -0.54561117933121
  H           6.68231798130038     -1.91942790593445      0.00347710798848
  H           5.97565118768453     -2.40605828671393     -1.54267220427009
  H           5.08171578835185     -3.45096998696643      1.20273162628289
  H           4.37270404310378     -3.92940992205016     -0.32890763713901
  H           5.04514889723946     -0.51655837489357      1.25436433659725
  H           1.96297237940976     -2.61864524428730     -0.65756662485117
  H           3.02109142526012      1.03132567983432      1.14848257367426
