47
Coordinates from ORCA-job Cx4Cx12Hx3H-LLHH-1a1h-cluster1-H-only E -3371.279772745550
C       -3.74335958      -2.81113060       0.32048348 # dw=0.00483
C       -2.81805946      -1.70559592      -0.18762847
S       -1.14395670      -1.71965820       0.47313185 # dw=0.00178
C       -0.89613990       2.74343782       2.91617887 # dw=0.00650
C       -0.52379049       1.83267069       1.74510879
S        0.94076771       2.37951894       0.82390942
C        1.14508462      -1.72923413      -6.27119580
C       -0.14223512      -1.05597263      -5.83399923 # dw=0.00147
C       -0.08735966      -0.48896699      -4.45499659
N        0.62503865       0.64943172      -4.14607744
C       -0.65395845      -0.90431006      -3.29692321
C        0.49307336       0.91233301      -2.86005369
N       -0.27832297      -0.01611485      -2.32196052 # dw=0.00117
C        6.15947644      -2.72949569      -0.51393136
C        4.85178759      -3.10025089       0.19224883 # dw=0.00606
C        3.85916237      -1.97981537       0.26741148
N        4.15355396      -0.76265879       0.84239187
C        2.57605144      -1.89153560      -0.15640338
C        3.09509626       0.02574202       0.77155782
N        2.12338429      -0.63379832       0.16968460 # dw=0.00491
Zn       0.00000000       0.00000000       0.00000000
H       -4.71810244      -2.71174276      -0.16269956
H       -3.88335327      -2.74491803       1.40197250
H       -3.34369391      -3.80167828       0.08911145
H       -3.27320203      -0.73866905       0.03939055
H       -2.75891971      -1.76847567      -1.27682506
H       -1.77647153       2.36278401       3.44320488
H       -1.11462472       3.75411508       2.56162163
H       -0.06741023       2.80482829       3.62610979
H       -0.36274077       0.83488328       2.17165028 # dw=0.02356
H       -1.39440685       1.76857661       1.08230680
H        1.04492655      -2.12967344      -7.28225727
H        1.40072951      -2.55357933      -5.60143249
H        1.98055199      -1.02484057      -6.27076108
H       -0.96420781      -1.77513634      -5.85772227
H       -0.40273596      -0.26146673      -6.54101622
H        1.15175793       1.19390094      -4.81241914
H       -1.28036258      -1.75845280      -3.10032949
H        0.94357840       1.74373997      -2.34084711
H        6.83053483      -3.58995561      -0.54289965
H        6.67642314      -1.91987249       0.00618863
H        5.96975635      -2.40650287      -1.53996068
H        5.07582095      -3.45141457       1.20544315
H        4.36680920      -3.92985450      -0.32619611
H        5.03925406      -0.51700296       1.25707586
H        1.95707754      -2.61908983      -0.65485510
H        3.01519659       1.03088110       1.15119410
