47
Coordinates from ORCA-job Cx2Cx12Hx4H-LLHH-1llm-cluster2 E -3371.344828310034
  C           0.42199999942595     -0.32099999993959      4.57700000112145
  C           0.19351060212002      0.08251052450680      3.13576825433527
  S           0.90520591109957     -1.13544755853820      1.97490503937099
  C           3.47099999749695      1.85500000063814      0.36800000045005
  C           2.64054710137987      1.84341943885091     -0.90002669723387
  S           0.84026590993975      1.98178159804142     -0.61141887957364
  C          -5.80599999633849     -2.45799999800873     -0.29699999939310
  C          -5.13502307998170     -1.57244964338089      0.74934516994733
  C          -3.88048576884198     -0.93292832340238      0.27589659321677
  N          -3.84281212251042      0.00695929190561     -0.72539118817517
  C          -2.57742153878613     -1.09019891494658      0.65336643130225
  C          -2.57097137254554      0.38374217871712     -0.92205846920266
  N          -1.77591496854512     -0.26601419459894     -0.09904420486611
  C           0.39599999941558     -5.25800000268982     -3.91000000217840
  C           1.53541116910777     -4.72805223438553     -3.04523249584832
  C           1.31534913972465     -3.33097823331070     -2.59612495554774
  N           1.34695887390298     -2.25187975449600     -3.44519749602513
  C           1.00651053410010     -2.80444986907578     -1.37530547801829
  C           1.06888605464884     -1.14071274672803     -2.74857942289385
  N           0.85581040870152     -1.44341722989121     -1.48612154200987
  Zn          0.28010437279211     -0.15623556285953     -0.00128098780632
  H          -0.01080793781287      0.41736465702867      5.25910032503032
  H           1.48980324263731     -0.40084388800648      4.79617292066002
  H          -0.03721460010477     -1.28977850614664      4.78961015263907
  H          -0.87712178681865      0.17428754584570      2.93602263929155
  H           0.64349597788038      1.05901470672539      2.93971541856857
  H           4.53815188351997      1.78960937990397      0.13134609148455
  H           3.21078981842602      1.00981849950978      1.01028114406541
  H           3.30281914476754      2.77328397868186      0.93587604668068
  H           2.91926520317801      2.68563492815935     -1.53809299528194
  H           2.83679553378024      0.93307269095862     -1.47108087340734
  H          -6.71619025934113     -2.90292981440772      0.10967455319412
  H          -5.13897768267769     -3.26470740026492     -0.60893142971139
  H          -6.08050842064092     -1.88321117567207     -1.18463823149821
  H          -4.88858947519800     -2.16217986341747      1.63480743212452
  H          -5.83520074587583     -0.79562126368635      1.07423882370656
  H          -4.63862413888456      0.36551628042392     -1.23074492385945
  H          -2.16252543099396     -1.73330764462955      1.41338855919406
  H          -2.26587849987892      1.11533324627288     -1.65350818212330
  H           0.59503943771495     -6.28693124002343     -4.21625509200055
  H           0.27442630941160     -4.65519631745985     -4.81299154257711
  H          -0.54781016193577     -5.23950510121732     -3.36071469192542
  H           2.47841707020527     -4.78980887010135     -3.59784455808032
  H           1.64990537809095     -5.34958070543894     -2.15473254693021
  H           1.55077068712984     -2.28298319581419     -4.43256242933094
  H           0.88174905789851     -3.31409225041651     -0.43309870497032
  H           1.03196240857098     -0.15090725533274     -3.17561593830238
