33
Coordinates from ORCA-job Cx2Cx2Cx7C-LLHL-1a71-cluster2 E -3719.912835256832
  C          -1.54000000020832     -1.30800000037132      3.41700000100645
  C          -1.28873514796084      0.12550396911486      2.99091560442100
  S          -1.85105832771334      0.51479865078957      1.29641993447918
  C          -2.79800000113861      2.34900000072143     -2.12700000072146
  C          -1.36592093082671      2.59779352791834     -1.69421547753381
  S          -0.24739304019849      1.20414141371319     -2.06739639740213
  C          -1.24399999946777     -2.64399999973720     -3.27199999994798
  C          -1.50800855691792     -2.50856649095109     -1.78418820330062
  S           0.01771248721790     -2.34887565450255     -0.79060943931879
  C           3.67100000081469     -0.26300000061290     -0.98400000033700
  C           3.15344249397948     -0.82427502323791      0.32537571144227
  S           1.92705163877691      0.24006550075687      1.15996268810941
  Zn         -0.04632044197112     -0.08724428368691     -0.09349179714963
  H          -1.20136840479521     -1.47460821936790      4.44525406114981
  H          -1.00524472041246     -2.00403933020682      2.76501321609993
  H          -2.60411338141243     -1.55208194957579      3.36392528178315
  H          -1.80765259634919      0.81029010428378      3.66707796974826
  H          -0.22168835837821      0.34915341017557      3.05598829476424
  H          -3.43005020154642      3.21712535909988     -1.90955607505767
  H          -3.21380101985641      1.48519937762257     -1.60164235845355
  H          -2.85314491950406      2.14735522758344     -3.19981066894988
  H          -1.33112263088360      2.79135422033203     -0.61999677476128
  H          -0.97338148626983      3.48397596591783     -2.20017703288928
  H          -2.18149257789298     -2.76447227551918     -3.82584654492982
  H          -0.61264835600748     -3.51209539435672     -3.47831168764964
  H          -0.73262648600512     -1.75767718309355     -3.65520398318990
  H          -2.05572732972114     -3.38305608550317     -1.42307640693493
  H          -2.13881393789247     -1.63601692064873     -1.59522218465634
  H           4.42151071829876     -0.92801966744513     -1.42484923890547
  H           4.12828303968748      0.71848298606173     -0.83543773590246
  H           2.85549000116970     -0.14705150114573     -1.70253229955176
  H           3.98277678264242     -0.96811206793664      1.02320450261273
  H           2.70181137413303     -1.80444418342624      0.15502889337678
