33
Coordinates from ORCA-job Cx2Cx2Cx7C-LLHL-1a71-cluster2 E -3719.912835256832
C       -1.49367956      -1.22075572       3.51049180 # dw=0.01152
C       -1.24241471       0.21274825       3.08440740
S       -1.80473789       0.60204293       1.38991173 # dw=0.00300
C       -2.75167956       2.43624428      -2.03350820 # dw=0.01168
C       -1.31960049       2.68503781      -1.60072368
S       -0.20107260       1.29138570      -1.97390460 # dw=0.00311
C       -1.19767956      -2.55675572      -3.17850820 # dw=0.00855
C       -1.46168811      -2.42132221      -1.69069641
S        0.06403293      -2.26163137      -0.69711764 # dw=0.00311
C        3.71732044      -0.17575572      -0.89050820 # dw=0.01121
C        3.19976294      -0.73703074       0.41886751
S        1.97337208       0.32730978       1.25345449 # dw=0.00303
Zn       0.00000000       0.00000000       0.00000000
H       -1.15504796      -1.38736394       4.53874586
H       -0.95892428      -1.91679505       2.85850501
H       -2.55779294      -1.46483767       3.45741708
H       -1.76133215       0.89753439       3.76056977
H       -0.17536792       0.43639769       3.14948009
H       -3.38372976       3.30436964      -1.81606428
H       -3.16748058       1.57244366      -1.50815056
H       -2.80682448       2.23459951      -3.10631887
H       -1.28480219       2.87859850      -0.52650498
H       -0.92706104       3.57122025      -2.10668524
H       -2.13517214      -2.67722799      -3.73235475
H       -0.56632791      -3.42485111      -3.38481989
H       -0.68630604      -1.67043290      -3.56171219
H       -2.00940689      -3.29581180      -1.32958461
H       -2.09249350      -1.54877264      -1.50173039
H        4.46783116      -0.84077538      -1.33135744
H        4.17460348       0.80572727      -0.74194594
H        2.90181044      -0.05980722      -1.60904050
H        4.02909722      -0.88086778       1.11669630
H        2.74813182      -1.71719990       0.24852069
