16
Coordinates from ORCA-job zn-1his-eps-charge-2 E -2108.011573864677
  C          -5.31078221680410      2.52718414135788     -1.46841962381720
  C          -4.24065857203460      2.96889352823413     -2.45023611114741
  C          -2.91207687031048      2.37895930811341     -2.15310873879039
  N          -1.79715652599287      2.61104720197854     -2.92394663566322
  C          -2.49174326885455      1.55329785931632     -1.15743653790141
  C          -0.75454276395301      1.95945629875597     -2.42114123878835
  N          -1.14542437251296      1.30261841234265     -1.33840306643477
  Zn         -0.07769083999797      0.22196677522712     -0.23608585895234
  H          -6.26660156067730      2.98577691976080     -1.72351284392429
  H          -5.05626579711599      2.82113375197538     -0.44766158232751
  H          -5.43968885800652      1.44267167453141     -1.48694582706322
  H          -4.52610714026519      2.69386319673748     -3.47093383147524
  H          -4.14824548274048      4.06007806560688     -2.44392720741171
  H          -1.76455088207042      3.19146582509495     -3.75019614186396
  H          -3.04217481946100      1.12567355286196     -0.33742541854808
  H           0.24019997079749      1.97313348810507     -2.83543933589084
