16
Coordinates from ORCA-job zn-1his-eps-charge-3 E -2107.759836743292
  C          -5.34236795645960      2.31253945762127     -1.76160563893345
  C          -4.17229064335598      3.19694972922757     -2.21613795729117
  C          -2.88993019622686      2.52704001613408     -2.07807996802698
  N          -1.97658123071053      2.34268992998417     -3.04111886065982
  C          -2.30131467319203      1.91887148272823     -0.90832194066678
  C          -0.91379661121452      1.69014893884602     -2.54656712770103
  N          -1.10850882793537      1.42717463843146     -1.24133296064645
  Zn          0.12834499191585      0.52408611208932     -0.04640284008979
  H          -6.25732702909265      2.89903271835639     -1.83630728668375
  H          -5.22478434533418      1.98961206089905     -0.72656407875145
  H          -5.42544920705691      1.43444368238406     -2.40152793760140
  H          -4.29599949948894      3.54779149277330     -3.24051725927074
  H          -4.12836165461731      4.07856588251420     -1.55769116124106
  H          -2.06623589250052      2.64931691462896     -4.00607052256639
  H          -2.71879162726497      1.85854602727084      0.08646619635499
  H          -0.04011559746543      1.42041091611106     -3.12304065622470
