47
Coordinates from ORCA-job 3r6f E -3371.347559462786
  C          -2.49500000098290      2.45400000072619      2.99600000134706
  C          -1.29668170357606      2.25671489033178      2.09271416856495
  S          -1.71366727629465      1.19283936335055      0.66915203059926
  C          -0.35699999969147     -2.51200000013903      3.11399999987338
  C           0.16270772838592     -1.08926346052923      3.12045209023561
  S           1.45495090232548     -0.77774384153154      1.86480800349504
  C           3.17100000085551     -0.56100000062409     -2.84400000052189
  C           3.41535452190791      0.08149381719961     -1.48133556986784
  C           2.76743657628570      1.41424104283921     -1.33788165954432
  N           1.52731630875118      1.58332300305826     -0.76158280833464
  C           3.20869806108620      2.63721206985076     -1.75879908545710
  C           1.23228035857916      2.86655741277239     -0.83453340066049
  N           2.22540630292238      3.53201968545686     -1.43233408812760
  C          -1.88100000018114      0.79300000003693     -4.19800000069855
  C          -0.92936409295141      0.66896426458590     -3.02248036231423
  C          -0.62032138495536     -0.73583704964174     -2.64145954372044
  N          -0.09657374719905     -1.05800616676291     -1.40705559998458
  C          -0.74338750454983     -1.88988503761292     -3.36222570554142
  C           0.09333673794086     -2.36216838646818     -1.38802467115233
  N          -0.28598152112321     -2.89657712647664     -2.55247392451762
  Zn          0.29244306786908      0.21296779539394      0.15611435466840
  H          -2.24910760643236      3.11762367811900      3.83114292947840
  H          -2.83282673785749      1.49927038449861      3.40673679574559
  H          -3.32970917108140      2.89678170325383      2.44651647136101
  H          -0.94081746244112      3.22082570026113      1.72084468454940
  H          -0.47280346668536      1.80134440978754      2.64640211820269
  H          -1.10562479214416     -2.65395389728470      3.90051454705052
  H           0.45207731245544     -3.22740082678272      3.28057740762323
  H          -0.82257375203286     -2.75023971825876      2.15395149773015
  H          -0.65856341535151     -0.39074409567465      2.94903508762749
  H           0.59685096568446     -0.85283282605508      4.09491686197489
  H           3.64197245932395     -1.54529513456677     -2.89438974742969
  H           3.58696479014029      0.05726884146081     -3.64266344961206
  H           2.10305367758981     -0.68420384316632     -3.03332748936919
  H           4.49072020688613      0.19088280658831     -1.31878681362882
  H           3.04221641036215     -0.57471754135492     -0.68985396888099
  H           4.11751244799730      2.93883950362359     -2.25215654630597
  H           0.32605853373330      3.32459579464539     -0.47146060223630
  H           2.24560856549486      4.52533035095110     -1.60237667230863
  H          -2.06591119319741      1.84368154643166     -4.42790152407729
  H          -2.84069437804857      0.31860765407290     -3.97918059981208
  H          -1.47180626844353      0.32331053638253     -5.09604402743457
  H          -1.34064917759896      1.17706543388621     -2.14488913880599
  H           0.00916257425138      1.18764246360235     -3.24974697174555
  H          -1.10637048827444     -2.08016469259150     -4.35779486877890
  H           0.49151517782959     -2.92826718878130     -0.56092537653308
  H          -0.24924675031979     -3.87612214073552     -2.78702881526268
