47
Coordinates from ORCA-job 3r6f E -3371.347559462786
C       -2.78744307       2.24103221       2.83988565 # dw=0.00546
C       -1.58912477       2.04374709       1.93659981
S       -2.00611034       0.97987157       0.51303768 # dw=0.00250
C       -0.64944307      -2.72496780       2.95788565 # dw=0.01019
C       -0.12973534      -1.30223126       2.96433774
S        1.16250783      -0.99071164       1.70869365 # dw=0.00255
C        2.87855693      -0.77396780      -3.00011436 # dw=0.00926
C        3.12291145      -0.13147398      -1.63744992
C        2.47499351       1.20127325      -1.49399601
N        1.23487324       1.37035521      -0.91769716 # dw=0.00291
C        2.91625499       2.42424427      -1.91491344
C        0.93983729       2.65358962      -0.99064776
N        1.93296324       3.31905189      -1.58844844
C       -2.17344307       0.58003220      -4.35411436 # dw=0.00609
C       -1.22180716       0.45599647      -3.17859472
C       -0.91276445      -0.94880485      -2.79757390
N       -0.38901682      -1.27097396      -1.56316995 # dw=0.00284
C       -1.03583057      -2.10285283      -3.51834006
C       -0.19910633      -2.57513618      -1.54413903
N       -0.57842459      -3.10954492      -2.70858828
Zn       0.00000000       0.00000000       0.00000000
H       -2.54155067       2.90465588       3.67502857
H       -3.12526981       1.28630259       3.25062244
H       -3.62215224       2.68381391       2.29040212
H       -1.23326053       3.00785790       1.56473033
H       -0.76524653       1.58837661       2.49028776
H       -1.39806786      -2.86692169       3.74440019
H        0.15963424      -3.44036862       3.12446305
H       -1.11501682      -2.96320751       1.99783714
H       -0.95100648      -0.60371189       2.79292073
H        0.30440790      -1.06580062       3.93880251
H        3.34952939      -1.75826293      -3.05050410
H        3.29452172      -0.15569895      -3.79877780
H        1.81061061      -0.89717164      -3.18944184
H        4.19827714      -0.02208499      -1.47490117
H        2.74977334      -0.78768534      -0.84596832
H        3.82506938       2.72587171      -2.40827090
H        0.03361547       3.11162800      -0.62757496
H        1.95316550       4.31236256      -1.75849103
H       -2.35835426       1.63071375      -4.58401588
H       -3.13313745       0.10563986      -4.13529495
H       -1.76424934       0.11034274      -5.25215838
H       -1.63309225       0.96409764      -2.30100349
H       -0.28328049       0.97467467      -3.40586133
H       -1.39881356      -2.29313249      -4.51390922
H        0.19907211      -3.14123498      -0.71703973
H       -0.54168982      -4.08908994      -2.94314317
