47
Coordinates from ORCA-job 1clc-1eps-1delta-charge-1 E -3371.169574740321
  C          -0.10427804607766     -2.59148684120309     -3.17129100158172
  C          -0.76076263658002     -2.49826823801046     -1.80956536886339
  S           0.40710032944152     -2.17561252258875     -0.45412318636432
  C           4.37393861312982     -1.67699630975365     -0.85572690951445
  C           3.45889386878699     -0.57131365386103     -0.37787678409276
  S           2.18257225781900     -0.15243100545687     -1.60170278538300
  C          -0.28802363098865     -1.46255950014334      3.34960925706436
  C          -0.87635078607977     -0.09535883281597      3.01563863755386
  C           0.16612499086245      0.92344973244887      2.72565736337699
  N           0.75754542083536      1.05111566448698      1.48497710514535
  C           0.75046750253950      1.83016761131971      3.56075991457840
  C           1.66900830689348      2.00449122482031      1.57562897896375
  N           1.68903781849391      2.49241806980770      2.81553333160537
  C          -4.75950488601311      3.24482537461592      0.20483866900332
  C          -4.40364747294187      2.93688022919484     -1.23829356173177
  C          -3.14310019825808      2.16305440182088     -1.36750820152397
  N          -2.63378900416285      1.76372391472587     -2.57862219441578
  C          -2.25682629734502      1.69423793752881     -0.44249126288168
  C          -1.49775262433837      1.08844169376596     -2.37816256727989
  N          -1.23874976041682      1.02701135928213     -1.08668525035754
  Zn          0.30957508501839      0.13965707176487     -0.22038210769613
  H          -0.85050557556484     -2.86057706061833     -3.92399497728324
  H           0.68074444184169     -3.35031837508477     -3.17767147332779
  H           0.34437004791404     -1.63791335359532     -3.45464644955560
  H          -1.22973760414858     -3.45108664503520     -1.54964442013972
  H          -1.53946370537229     -1.73538868836920     -1.79916552480722
  H           5.14546419421102     -1.87629729429605     -0.10675266872048
  H           4.86823177772754     -1.40197699502048     -1.78987611900228
  H           3.81275758741510     -2.59851626500898     -1.02380768858620
  H           2.96751301534700     -0.84358165979915      0.55823192585344
  H           4.01676464672413      0.35020615121100     -0.19177392284702
  H          -1.08350057918767     -2.18767046356979      3.53429442438243
  H           0.33886080675905     -1.40521009712856      4.24215363820617
  H           0.32388964034914     -1.83435208600063      2.52521830725863
  H          -1.53597933062915     -0.17980886226770      2.14644899667643
  H          -1.49022037506601      0.25830609882469      3.84697705922022
  H           0.58116931781685      2.05265880667021      4.60075228626951
  H           2.30263383003881      2.35222674815491      0.77554657445798
  H           2.29430644889418      3.23001238473658      3.14194371174464
  H          -5.68917423431601      3.81334117161037      0.25110808390476
  H          -3.97717618286401      3.83548169724659      0.68681310281692
  H          -4.89469037300491      2.32758276017819      0.78250893883403
  H          -5.21423671453773      2.37366795735634     -1.71320009128513
  H          -4.30841960550038      3.86745197414483     -1.80823627326051
  H          -3.04795827046701      1.94567421670810     -3.48056765360528
  H          -2.27932791583348      1.78988191037918      0.63022885255200
  H          -0.89648913916466      0.66681358682348     -3.16781671536170
