9
Coordinates from ORCA-job zn-1cys-charge-0 E -2282.473047736707
  C          -0.34165746839968      2.77166888821732      3.45148697429606
  C           0.00742821075594      1.63292578046683      2.51520541130974
  S          -0.68103038661816      1.94908642894859      0.84710352425979
  Zn          0.12749963395467      0.14042334879257     -0.29684129566751
  H           0.06483097215336      2.57876418273152      4.44873412017799
  H          -1.42416810379149      2.88840101282596      3.54231621750540
  H           0.07194336831753      3.71680774160912      3.09200966791731
  H           1.09001285499580      1.52326707860583      2.43768978220074
  H          -0.39737908136797      0.69285553780223      2.89273559800045
