47
Coordinates from ORCA-job Hx1Hx1Cx35C-HLHH-2glz-cluster2 E -3371.339763266860
C       -3.69247392       5.00244324       1.29705066 # dw=0.00713
C       -5.02647393       1.13144321      -2.93694937 # dw=0.00736
N       -0.74136023       1.59761246       1.07046728 # dw=0.00292
N       -0.84809252       0.58192435      -1.79056714 # dw=0.00295
C       -2.52718511       1.16002870      -3.15607767
C       -2.11698682       3.16774828       1.87348341 # dw=0.00339
C       -1.79547392      -4.01755678      -1.27594936 # dw=0.00506
S       -1.05299155      -1.98632665       0.48278994 # dw=0.00256
C        2.58525992       0.13063876       1.90817656
C       -3.25427644       3.99013273       2.34964118
C       -0.33340841       1.08842723      -2.88882832
C       -0.10992827       2.75192133       1.05715611
C       -3.82786913       1.43798956      -3.82047582
C        2.80952608       1.44644322       2.63505064
C       -0.88629776      -2.80997327      -1.14516280
S        2.28090741       0.29866614       0.10479781 # dw=0.00259
C       -1.99598184       1.84087522       1.57505957
C       -2.21500772       0.61898638      -1.94261353
N       -1.31385141       1.44557398      -3.73342935
N       -0.90429590       3.71662489       1.53692464
Zn       0.00000000       0.00000000       0.00000000
H       -4.54049389       5.58871348       1.65686734
H       -3.99176348       4.49678174       0.37617611
H       -2.88580051       5.69741190       1.05387980
H       -5.95303229       1.35235753      -3.46835939
H       -5.00630384       1.73102903      -2.02389248
H       -5.04473924       0.07809811      -2.64803731
H       -1.66544582      -4.48953169      -2.25457643
H       -2.84459138      -3.72922170      -1.17294979
H       -1.57454943      -4.76296679      -0.50770387
H        3.46705086      -0.50412786       2.02126208
H        1.74698839      -0.40852869       2.35499976
H       -2.97881749       4.50988285       3.27316036
H       -4.07828136       3.31798816       2.59682929
H        0.71664710       1.21325075      -3.10095047
H        0.89597178       2.90896156       0.70317611
H       -3.88780263       0.85400043      -4.74563010
H       -3.84994051       2.48933796      -4.12708278
H        3.61759721       2.01645080       2.17007465
H        3.08306074       1.25838369       3.67846116
H        1.91187816       2.06552566       2.63002769
H       -1.11934632      -2.08221870      -1.92505627
H        0.15583926      -3.10861946      -1.28123913
H       -2.72948578       1.05720782       1.67860931
H       -2.87410494       0.25373440      -1.17233939
H       -1.17709925       1.85873998      -4.64325656
H       -0.64639640       4.68665545       1.63330605
