9
Coordinates from ORCA-job zn-1cys-charge-3 E -2281.784704432143
  C          -0.43719515147791      2.80980290129936      3.47043829232069
  C          -0.20018042991961      1.90141320440639      2.36466424322040
  S          -1.02724921594241      1.68100010983003      1.00031414610681
  Zn          0.09135144339822     -0.05160093357008     -0.17867307363117
  H          -0.47891219790455      2.22786349801032      4.40353946008842
  H          -1.34940607026045      3.38185953415936      3.31710020019992
  H           0.43604381544369      3.47214234430261      3.57736168491358
  H           1.00065352138385      1.56578836191618      2.27915967917560
  H           0.48237428527918      0.90593097964580      2.69653536760572
