33
Coordinates from ORCA-job Cx2Cx2Cx7C-LLLL-1axe-cluster2-H-only E -3719.876416722169
C       -1.52377434      -1.31305224       3.40708074 # dw=0.00450
C       -1.33063013       0.19982033       3.17100683
S       -1.56581924       0.81938145       1.43858999 # dw=0.00277
C       -2.98080480       2.37803673      -2.16640648 # dw=0.01489
C       -1.56000926       2.71958584      -1.74509396
S       -0.37421842       1.38597922      -2.02879353 # dw=0.00349
C       -1.34224105      -2.67164232      -3.34398521 # dw=0.00888
C       -1.82684470      -2.35888710      -1.93045153
S       -0.50162014      -2.05771499      -0.75710451 # dw=0.00227
C        3.75596252      -0.25200497      -1.01162142 # dw=0.09049
C        3.25201875      -0.79117244       0.33133245
S        1.75974274       0.07866532       0.95190926 # dw=0.00143
Zn       0.00000000       0.00000000       0.00000000
H       -1.38686806      -1.54564343       4.46739542
H       -0.79799353      -1.88974454       2.82912216
H       -2.52560734      -1.63002951       3.10753729
H       -2.04317746       0.75810818       3.78194486
H       -0.32851994       0.48646431       3.49792712
H       -3.65739660       3.22211772      -1.99252971
H       -3.35354956       1.51947993      -1.60111473
H       -3.02053533       2.12102359      -3.22824061
H       -1.54995039       2.98398363      -0.68395781
H       -1.22228891       3.60363047      -2.29435819
H       -2.18724286      -2.88134123      -4.00836361
H       -0.68158076      -3.54239104      -3.34292225
H       -0.78376721      -1.82629415      -3.75382567
H       -2.42570955      -3.19370531      -1.55684762
H       -2.48905777      -1.48710597      -1.96224793
H        4.66093823      -0.78105013      -1.32703602
H        3.98575949       0.81331894      -0.93785006
H        2.99491024      -0.38181790      -1.78477766
H        4.01351765      -0.66711386       1.10304269
H        3.03379017      -1.85822668       0.24861584
