47
Coordinates from ORCA-job Cx17CHx22H-LLLL-1clc-cluster1-H-only E -3371.315817014538
  C          -1.64914458888402     -2.23781719667179     -2.17271016033568
  C          -2.56923295585061     -1.77273629570959     -1.04041640316330
  S          -1.75714735623581     -1.46215397375959      0.55841304371044
  C           3.98537419737520     -1.45407001360255      0.03089604414791
  C           3.32398289721454     -0.21967556936721     -0.59003624210520
  S           1.67877191853970     -0.50167559000834     -1.32610201634430
  C           2.18965585753737     -1.95464645852535      3.35425683622394
  C           0.83578497985220     -1.26037214613182      3.24167430779718
  C           0.96425790716791      0.22416595484023      3.05566803449054
  N           1.07412430687805      0.81239923977342      1.81781506389919
  C           1.04091553916835      1.23217035648364      3.95231720433435
  C           1.19359101552232      2.12136095896640      1.95304051712013
  N           1.18631751507666      2.39900868001609      3.23969697441734
  C          -5.33756039083415      2.33434353764283     -1.72497194048631
  C          -4.18856041908954      3.16265642008678     -2.22812483346105
  C          -2.86651328966900      2.52054943661826     -2.02857782303019
  N          -1.95273104588053      2.38162872752671     -3.04427908185246
  C          -2.28737632503392      2.00292218251409     -0.92047520964499
  C          -0.86128359693363      1.81927644723176     -2.57461177510760
  N          -1.03246947630128      1.58621515782190     -1.28815041524663
  Zn          0.00092724811669     -0.00299667725872     -0.00012403616811
  H          -2.23348494854175     -2.43549831445483     -3.07642613831363
  H          -1.11768912896278     -3.15108682436851     -1.89559824768140
  H          -0.90567289253256     -1.47199768392538     -2.40558135831053
  H          -3.33192927979192     -2.53062357604400     -0.84582961027491
  H          -3.09033853671683     -0.86232020329120     -1.34814568805991
  H           4.90085059753750     -1.17188930915972      0.55900204608367
  H           4.24459092404145     -2.18402956470644     -0.74036366042164
  H           3.31135768739092     -1.94392122428396      0.73089481378507
  H           3.22425833330597      0.56009285987784      0.16761267452882
  H           3.95585262392785      0.17983806760899     -1.38583791599830
  H           2.07078753747023     -3.04039907839822      3.35447201223763
  H           2.69474609053532     -1.66701823897167      4.27948396183153
  H           2.83822663801258     -1.68029614092879      2.52542232468275
  H           0.27914330697015     -1.66334292939552      2.39149692139919
  H           0.24012506622515     -1.45524512394110      4.13642067203942
  H           1.01539924621452      1.24097024662154      5.03001902810195
  H           1.27251461793307      2.84479120764961      1.15785283936745
  H           1.27568973927863      3.31636234532816      3.64924788822805
  H          -6.28686517612029      2.85152029423948     -1.88055860580633
  H          -5.24193902120024      2.13023888738171     -0.65572657619875
  H          -5.38548016686304      1.37310023518979     -2.24260896225895
  H          -4.31981215280628      3.37258661769237     -3.29386045562507
  H          -4.19139673539131      4.13817221989239     -1.72976853668678
  H          -2.10437023440745      2.68100713825651     -3.99551697436505
  H          -2.66173765322130      1.89930655589909      0.08393035836465
  H           0.01679457997596      1.57518335774468     -3.14994689984411
