33
Coordinates from ORCA-job Cx4C-Cx4C-LL-LL-1d0c-cluster1 E -3719.910507143236
  C           4.72200000809928     -0.08299999785304     -0.57500000073398
  C           3.34811924631957     -0.64777756103284     -0.32188783931776
  S           2.04661590316575      0.19185714819748     -1.28059845097017
  C           1.89699999795658      1.94299999444294      2.58000000212378
  C           0.40123081947339      1.78075467915333      2.76477057296489
  S          -0.55795003809351      1.89764671892422      1.21604018628766
  C           1.30699999805278     -4.30099999101332      1.50499999777166
  C           1.54235946196682     -2.88226570676173      1.05504668427423
  S           0.26345905008727     -1.72887924755283      1.64899146495785
  C          -0.65200000410864     -2.73700000557658     -2.42499999916146
  C          -0.97016186175031     -1.31884588315102     -2.85505500685395
  S          -1.68509787098598     -0.28295830996361     -1.53342412586837
  Zn          0.08893313808092     -0.03644787050947      0.01379950663729
  H           5.47745012349901     -0.62863811417614      0.00036585914694
  H           4.77611351079365      0.97152700335086     -0.29047359914344
  H           4.99017958544158     -0.15414037793537     -1.63286723225067
  H           3.34138251172919     -1.70785591573802     -0.57598399195362
  H           3.10237280586691     -0.57391911707732      0.73872644149888
  H           2.41860128095911      1.88290697389923      3.54140576157892
  H           2.13435737187336      2.90654723331826      2.12153575411976
  H           2.29019501038612      1.15796494063433      1.92965689239155
  H           0.19351429439123      0.81167006776623      3.22388553884193
  H           0.02097202685780      2.55211133191140      3.44010295344692
  H           2.10858511552093     -4.95817641760029      1.15129641233505
  H           0.35848070053771     -4.68692832421952      1.12135359956354
  H           1.27444856847735     -4.36893520104996      2.59604977056545
  H           2.51378623076145     -2.54486113514917      1.41748333386235
  H           1.57811509705498     -2.83808202999689     -0.03447825828269
  H          -0.24886928758127     -3.31856469832598     -3.26116340147863
  H          -1.54568337943193     -3.24509278510564     -2.05334976536566
  H           0.08957409551297     -2.73562981504132     -1.62279414665529
  H          -1.68635553057965     -1.32894151757652     -3.68121015361095
  H          -0.06011242592455     -0.83438168471984     -3.21591087160724
