47
Coordinates from ORCA-job Cx2Cx7Hx3H-HHHH-1svl-cluster2-H-only E -3371.307148421232
C       -0.60119995       1.71883553      -4.23007473 # dw=0.00546
C       -0.32077079       1.65069620      -2.72050972
S        0.40162213       0.09058913      -2.12542285 # dw=0.00194
C       -3.64520884      -1.44593364      -0.82454405
C       -3.31640861      -0.02627703      -0.34365891
S       -1.86036114       0.09243268       0.77770087 # dw=0.00147
C        0.28559629      -4.29272417       4.39557976 # dw=0.01095
C        0.68011302      -4.77426997       3.00282343
C        0.97945857      -3.66132225       2.04701768 # dw=0.00921
N        2.26396418      -3.30739719       1.69880165
C        0.16334276      -2.79730458       1.39759374
C        2.22710899      -2.27738435       0.87251766
N        0.96435883      -1.94794931       0.67496113 # dw=0.00112
C        0.68968615       1.59263081       4.60230835 # dw=0.00633
C        0.36827509       1.25182112       3.14515712
C        1.33381305       1.83690752       2.15911892
N        1.25719969       1.59228441       0.80527405 # dw=0.00575
C        2.41029909       2.63939997       2.33601628
C        2.24409070       2.21781564       0.19022542
N        2.95936748       2.85907696       1.09669553
Zn       0.00000000       0.00000000       0.00000000
H       -1.01710307       2.69778691      -4.48207436
H       -1.31692357       0.94966539      -4.53000778
H        0.31551909       1.57466646      -4.80718016
H       -1.25399969       1.82655284      -2.17911639
H        0.35453842       2.46656230      -2.44875264
H       -4.54718422      -1.43434651      -1.44369740
H       -3.81510132      -2.11262686       0.02375286
H       -2.82326116      -1.85051611      -1.41915325
H       -4.14461668       0.37978972       0.23794711
H       -3.15825566       0.63086106      -1.20095398
H        0.07519817      -5.14249002       5.04843365
H       -0.60818645      -3.66688395       4.34996399
H        1.08722143      -3.70425530       4.84807864
H        1.55367821      -5.42868214       3.06874441
H       -0.12937946      -5.37924663       2.58610587
H        3.09506049      -3.78223081       2.01773991
H       -0.90964281      -2.70182573       1.40468840
H        3.09033320      -1.79220367       0.44653884
H       -0.04767938       1.13799103       5.26531526
H        0.67405440       2.67262978       4.76643633
H        1.67740777       1.22126452       4.88536446
H        0.35488389       0.16445162       3.01152634
H       -0.63925642       1.59326447       2.89229203
H        2.84347123       3.07867524       3.21951490
H        2.44713099       2.19380809      -0.86820840
H        3.76834797       3.43230467       0.91407321
