47
Coordinates from ORCA-job Cx2Cx7Hx3H-HHHH-1svl-cluster2-H-only E -3371.307148421232
  C          -0.59774631313114      1.71504574209491     -4.23169901159281
  C          -0.31731715178039      1.64690641961178     -2.72213400199683
  S           0.40507576303801      0.08679934369315     -2.12704712742427
  C          -3.64175519992502     -1.44972342723019     -0.82616833322877
  C          -3.31295497367054     -0.03006681843186     -0.34528318653810
  S          -1.85690749796398      0.08864289619174      0.77607659165183
  C           0.28904992794914     -4.29651395676817      4.39395547916848
  C           0.68356666062738     -4.77805974997526      3.00119914847691
  C           0.98291220665591     -3.66511203540238      2.04539340006364
  N           2.26741781430048     -3.31118697783314      1.69717737438599
  C           0.16679639943069     -2.80109436096521      1.39596946337075
  C           2.23056262801416     -2.28117413247585      0.87089338362230
  N           0.96781246670726     -1.95173909435118      0.67333685320350
  C           0.69313978506430      1.58884102755843      4.60068406549142
  C           0.37172872459697      1.24803133228588      3.14353284416351
  C           1.33726668504282      1.83311773971978      2.15749463862940
  N           1.26065333031410      1.58849462277084      0.80364977180814
  C           2.41375272596497      2.63561018620303      2.33439200062534
  C           2.24754433737408      2.21402585652944      0.18860114325945
  N           2.96282111393118      2.85528717728259      1.09507124883948
  Zn          0.00345363713276     -0.00378978399534     -0.00162428057052
  H          -1.01364943685081      2.69399712892247     -4.48369864417847
  H          -1.31346992888576      0.94587560820038     -4.53163205632536
  H           0.31897273009425      1.57087667718602     -4.80880444220701
  H          -1.25054605092939      1.82276305635763     -2.18074067019502
  H           0.35799205440396      2.46277251587338     -2.45037692505551
  H          -4.54373058328324     -1.43813629091194     -1.44532168310759
  H          -3.81164767984568     -2.11641664587745      0.02212857644357
  H          -2.81980752098937     -1.85430589620590     -1.42077752794584
  H          -4.14116304678556      0.37599994041570      0.23632282450618
  H          -3.15480202650085      0.62707127116960     -1.20257825642153
  H           0.07865180646249     -5.14627980525527      5.04680936604946
  H          -0.60473281552216     -3.67067373328411      4.34833970558719
  H           1.09067506320545     -3.70804508071435      4.84645436183184
  H           1.55713184498044     -5.43247192679941      3.06712012687432
  H          -0.12592581813289     -5.38303641511799      2.58448158504432
  H           3.09851412485399     -3.78602059602742      2.01611563202581
  H          -0.90618916986922     -2.70561551291840      1.40306412076399
  H           3.09378683336498     -1.79599345134973      0.44491455447154
  H          -0.04422574425066      1.13420124311677      5.26369098429000
  H           0.67750804182798      2.66884000066196      4.76481204509556
  H           1.68086140896101      1.21747473757388      4.88374018066158
  H           0.35833752948436      0.16066183758557      3.00990205481101
  H          -0.63580278465438      1.58947469016718      2.89066775232639
  H           2.84692486842399      3.07488545558246      3.21789062067596
  H           2.45058462780746      2.19001830220210     -0.86983268432620
  H           3.77180160295649      3.42851488293388      0.91244893289492
