33
Coordinates from ORCA-job Cx2Cx17Cx2C-LLHH-13sb-cluster2 E -3719.910773098694
  C           3.35199999830960     -1.87299999942636     -2.54699999809278
  C           2.69515526601924     -0.92028027190231     -1.57081377150267
  S           1.64777468625824     -1.78956392712929     -0.35402828499530
  C          -2.42499999981785     -1.74300000034429     -2.75699999981657
  C          -2.61209231417621     -0.51314486231546     -1.88721813272258
  S          -1.14418867388018      0.57475988376011     -1.78258429119806
  C           3.73900000119661      1.47800000032751      1.56399999991610
  C           2.62848881836175      2.05076431205303      0.70035801851511
  S           0.94522515008106      1.69645224855648      1.32475877909808
  C          -0.66499999968836     -0.84900000055686      4.15299999799324
  C          -0.57376563204237     -1.75859461772073      2.94432733565841
  S          -1.58425681403557     -1.18630153020670      1.53345895564454
  Zn          0.01776641529261     -0.15676617821535      0.15322685574831
  H           3.98891799969286     -1.33057330688047     -3.25368292011325
  H           2.60166185674475     -2.42514489153399     -3.11878680807597
  H           3.97494962674766     -2.60264669957684     -2.02259546835029
  H           2.07485811625193     -0.19970472545644     -2.11063856747451
  H           3.46041931151344     -0.35084912768108     -1.03803113956308
  H          -3.34488322999121     -2.33629311262443     -2.79411610520888
  H          -1.62565429406345     -2.37713033940331     -2.36389663172005
  H          -2.15742614727367     -1.46284443891757     -3.77903184640941
  H          -2.88995307417117     -0.81358669951262     -0.87444758159237
  H          -3.43277706417920      0.09343529229184     -2.27928802799177
  H           4.72201941779922      1.74737621101108      1.16293895204899
  H           3.67385285773094      0.38741763267411      1.60551104118809
  H           3.67172266003179      1.85701917989722      2.58688079269126
  H           2.73083323295280      3.13780643156013      0.64531653039341
  H           2.71341017773101      1.67255772866333     -0.31924262823188
  H          -0.06960664269814     -1.24236703063189      4.98444899172801
  H          -1.70002787156744     -0.75411559882909      4.49133240689370
  H          -0.29622675648655      0.15110746954914      3.91290305206826
  H           0.46471966232870     -1.84605768613614      2.61536590341034
  H          -0.91158921094260     -2.76414859467894      3.20877596173904
