37
Coordinates from ORCA-job Cx2Cx2Cx7C-LLLL-1axe-cluster2 E -3776.488674241055
C       -1.19336603      -1.12639621       3.47864323 # dw=0.00966
C       -0.86964715       0.32118159       3.16491601
S       -1.51469592       0.90280162       1.55740283 # dw=0.00297
N       -3.42500571      -2.92784129       1.09387884
C       -2.65236603       2.55860379      -2.09835677 # dw=0.00940
C       -1.22950702       2.71257348      -1.59372163
S       -0.16316659       1.27897472      -1.97767168 # dw=0.00303
C       -1.00536603      -2.48939621      -3.27135677 # dw=0.00910
C       -1.58749641      -2.25737015      -1.89235490
S       -0.32721114      -2.27587184      -0.57267601 # dw=0.00311
C        4.08763397      -0.06039621      -0.93735677 # dw=0.00946
C        3.19334285      -0.93647515      -0.08102294
S        2.11799070       0.00167601       1.06014847 # dw=0.00309
Zn       0.00000000       0.00000000       0.00000000
H       -0.79536185      -1.41031420       4.45879444
H       -0.75949844      -1.79182092       2.72819999
H       -2.27362394      -1.29089758       3.48774067
H       -1.29331580       0.97256104       3.93406792
H        0.21248817       0.46888517       3.17569660
H       -2.48503082      -2.71168971       0.75884949
H       -3.33561664      -3.10889455       2.08783694
H       -3.68054557      -3.81272006       0.66844456
H       -3.24719440       3.44878493      -1.86640300
H       -3.13564726       1.69491967      -1.63371586
H       -2.67039912       2.40931481      -3.18094036
H       -1.23114199       2.86114419      -0.51171951
H       -0.77071493       3.59678827      -2.04418558
H       -1.79248834      -2.49474237      -4.03354190
H       -0.48029698      -3.44700640      -3.31779527
H       -0.29128499      -1.70188032      -3.52458350
H       -2.32696669      -3.03018383      -1.66555562
H       -2.10312195      -1.29470836      -1.86355719
H        4.72700055      -0.67063669      -1.58461834
H        4.73255320       0.56663234      -0.31638110
H        3.49192304       0.60035503      -1.57291283
H        3.80725538      -1.61153673       0.52147087
H        2.55403696      -1.56018616      -0.71072753
