37
Coordinates from ORCA-job Cx2Cx2Cx7C-LLHL-1a71-cluster2 E -3776.489247399656
  C          -1.53999999649759     -1.30800001350961      3.41699992461441
  C          -1.20061638021647      0.14382248360901      3.14355686033322
  S          -1.77522505822610      0.75437841972932      1.52051512974900
  N          -3.67160877306651     -3.18185121033533      1.06266321479633
  C          -2.79799999812669      2.34900000061444     -2.12699999746079
  C          -1.37997210110949      2.53539027788926     -1.62188999652405
  S          -0.29434339248642      1.10672892855899     -1.96291451231871
  C          -1.24400000540443     -2.64399998935449     -3.27199992863284
  C          -1.82836952072683     -2.38380024420122     -1.89923307344746
  S          -0.58019943096997     -2.44413409883925     -0.56989997832778
  C           3.67100000002870     -0.26299999775034     -0.98399999852077
  C           2.94990048608193     -1.13613698066944      0.02449669291950
  S           1.85404242579954     -0.20960455696219      1.15398273208756
  Zn         -0.22262707007560     -0.17504908863110      0.01795263395882
  H          -1.18445851506202     -1.61056218393687      4.40792727756618
  H          -1.07631568799888     -1.96116825457602      2.67389574686797
  H          -2.61991440046331     -1.46976203279385      3.37784068850797
  H          -1.65524250078507      0.78284158514627      3.90542470368719
  H          -0.11959585834776      0.28861622417448      3.20318951880806
  H          -2.73366523467654     -2.93808773607139      0.74082166226776
  H          -3.58466349225900     -3.39551367427501      2.05030414549706
  H          -3.90996656529128     -4.05546201551066      0.60520835448956
  H          -3.40644179624275      3.23645381816581     -1.92109918128641
  H          -3.27126947105252      1.49130382588048     -1.64142657113309
  H          -2.80943418486308      2.17060128114701     -3.20526086875117
  H          -1.38784582022123      2.71411722779939     -0.54453359504034
  H          -0.93025867472944      3.41226181503226     -2.09533741938641
  H          -2.02475672049842     -2.62672764031472     -4.04056988026200
  H          -0.75230561638744     -3.61959572432753     -3.30866207987619
  H          -0.50091273690732     -1.88348597254019     -3.52431109494569
  H          -2.59918857283398     -3.12638928163675     -1.67607964546010
  H          -2.30649911326450     -1.40166174986979     -1.87871984998778
  H           4.32653372301947     -0.86444965205748     -1.62333139572410
  H           4.28321404246752      0.49043970307803     -0.48184111732281
  H           2.95701684630317      0.26059617578101     -1.62501486315719
  H           3.67873572005026     -1.67102375283099      0.63950196363132
  H           2.34697757839306     -1.88841620454264     -0.49006901826249
