33
Coordinates from ORCA-job Cx2Cx13Cx2C-LLHH-1dsz-cluster1 E -3719.911582822391
C        1.19427309       2.59647524      -3.77580873 # dw=0.00561
C        1.29259152       1.63681645      -2.60559920
S       -0.33900671       0.97467321      -2.12242847 # dw=0.00301
C       -0.37972691       4.00947523       1.33519127 # dw=0.01069
C       -0.50310240       2.63010781       1.95290573
S        0.90071405       1.52126738       1.56971102 # dw=0.00308
C        2.04127308      -2.48752477      -2.65180872 # dw=0.00969
C        2.53693977      -1.85201788      -1.36685638
S        1.33628796      -1.95077607       0.00698449 # dw=0.00308
C       -2.69272691      -3.22252477       0.12019127 # dw=0.01009
C       -2.73833517      -1.79963919      -0.40150231
S       -2.14453340      -0.56730034       0.81153009 # dw=0.00304
Zn       0.00000000       0.00000000       0.00000000
H        2.18348316       2.97631437      -4.05128811
H        0.55812292       3.45045168      -3.52892285
H        0.76517083       2.10223247      -4.65139032
H        1.73449764       2.14182137      -1.74230376
H        1.95301321       0.80598629      -2.86501660
H       -1.23063379       4.64015664       1.61478951
H       -0.34847410       3.94367022       0.24416400
H        0.53568039       4.50633737       1.66671667
H       -1.42304131       2.14649180       1.61566111
H       -0.56804041       2.71764106       3.04075623
H        2.80422646      -2.43145049      -3.43597972
H        1.14309542      -1.97928681      -3.01217617
H        1.79104433      -3.53955754      -2.49347704
H        2.79373416      -0.80521517      -1.53927104
H        3.45005631      -2.35309712      -1.03479475
H       -3.08259422      -3.92505941      -0.62470430
H       -3.29181266      -3.32378645       1.02886269
H       -1.66729744      -3.51451594       0.36010126
H       -3.76391096      -1.53684194      -0.67412321
H       -2.13511944      -1.71295502      -1.30870561
