47
Coordinates from ORCA-job Hx46Hx2Cx4C-LLHL-1rni-cluster1-H-only E -3371.329799960256
C       -0.05817214       0.88569146      -5.96917642 # dw=0.00794
C        0.42739449      -0.50055249      -5.54644987
C        0.09373290      -0.84129660      -4.13178475 # dw=0.00427
N       -0.26449954      -2.11205055      -3.73099189
C        0.04501699      -0.07325202      -3.01906768
C       -0.52455610      -2.10880730      -2.43900116
N       -0.34444244      -0.88254653      -1.98184410 # dw=0.00477
C       -1.48034984       1.60963691       3.14443499
C       -0.78167663       2.54332946       2.17534317
C       -1.46847600       2.62276501       0.85138297
N       -1.45523332       1.58858998      -0.05658490 # dw=0.00384
C       -2.23376051       3.59361074       0.30525369 # dw=0.00428
C       -2.18060725       1.91983926      -1.10931117
N       -2.66550573       3.13250328      -0.91419986
C        1.24471855      -2.35475387       3.82585886 # dw=0.00516
C        1.18513513      -1.57741339       2.50658308
S       -0.40595189      -1.64983124       1.63943617 # dw=0.00299
C        3.79244845      -0.36313612      -1.56815298
C        3.02010986      -0.52101507      -0.26133841
S        2.08370264       0.98022950       0.15402081 # dw=0.00268
Zn       0.00000000       0.00000000       0.00000000
H        0.21731046       1.08061101      -7.00692772
H        0.38920264       1.66644827      -5.35023801
H       -1.14376917       0.96185891      -5.87896808
H        1.51159276      -0.56639954      -5.68966138
H       -0.01009436      -1.25937167      -6.20157548
H       -0.33769046      -2.90799562      -4.34652926
H        0.25849666       0.97371095      -2.88509805
H       -0.82066767      -2.96850244      -1.86028714
H       -0.95807790       1.59528851       4.10442780
H       -1.49411663       0.58967942       2.75528598
H       -2.50926718       1.93193956       3.32374730
H       -0.72692200       3.55281110       2.59024535
H        0.24810120       2.20703221       2.01588149
H       -2.52039717       4.56739152       0.66752471
H       -2.34729421       1.31896906      -1.98812921
H       -3.25911002       3.64071986      -1.55123503
H        2.23955893      -2.25589126       4.26882278
H        1.04424469      -3.41775975       3.66822179
H        0.51052395      -1.97557288       4.54156260
H        1.42852498      -0.52967579       2.69312121
H        1.96196837      -1.95930080       1.84250509
H        4.37626491      -1.26338917      -1.78678241
H        4.47967657       0.48438014      -1.51157587
H        3.10703345      -0.18739619      -2.40079749
H        3.71320152      -0.73294482       0.55649104
H        2.34114499      -1.37276154      -0.33185549
