47
Coordinates from ORCA-job Cx2Cx35Hx54H-LLLL-1z84-cluster2 E -3371.346731097379
  C          -3.42399999955077     -0.56699999989473      2.92200000026565
  C          -2.00521262985548     -0.60855624429887      2.39083253243279
  S          -1.56618136189331      0.92674131257638      1.50035469566790
  C          -2.96099999965957     -0.63599999955344     -2.37900000029121
  C          -2.47763398405179     -1.56331839655580     -1.28378642628174
  S          -0.66094414406097     -1.72414951151433     -1.20645021155647
  C           3.11399999982253     -1.21599999969658     -1.85699999959054
  C           2.85347548242897     -1.93983436696976     -0.54069877484231
  C           2.81496499721039     -1.04438912680366      0.64668359294832
  N           1.75204183019248     -0.21337730694046      0.93967388921199
  C           3.75778577734091     -0.88583705390376      1.62190818334580
  C           2.05010539299221      0.41734416908652      2.05931688414703
  N           3.25426797638035      0.03904109438741      2.49715711822490
  C           2.31199999938781      4.01799999914474      0.80399999961609
  C           0.91773625932865      3.56556761914247      0.38088805556590
  C           0.85140128276736      3.00912966392743     -1.00130125463502
  N           0.46068001167099      1.71479631317862     -1.27727095275884
  C           1.12174437814572      3.62982780112659     -2.18905303617706
  C           0.49064279703432      1.56781658836290     -2.58869246159161
  N           0.88747134792836      2.70372625799541     -3.16876642491809
  Zn         -0.04040902180341      0.14690839740392     -0.02993086004285
  H          -3.65773960399515     -1.48247174194620      3.47456937851988
  H          -4.14239952142830     -0.46878282225621      2.10425650875208
  H          -3.56546371818511      0.28120139761984      3.59681626334260
  H          -1.29886897519713     -0.74872896085339      3.21294896481552
  H          -1.87904575308407     -1.45393675775912      1.71063616718994
  H          -4.05525471396820     -0.59979048094768     -2.40289754311157
  H          -2.60819914066992     -0.96740518407846     -3.35866652800505
  H          -2.59154944582927      0.37982403546015     -2.21504133805843
  H          -2.87556633623934     -2.56921095198709     -1.43902571805059
  H          -2.83797098795013     -1.21590370221035     -0.31320791764710
  H           3.10712697391893     -1.92203624722650     -2.69002210540978
  H           4.08413694689099     -0.71352114851886     -1.84078652423243
  H           2.34634016890808     -0.46344419994858     -2.04603744719668
  H           3.63153902467761     -2.68866257812289     -0.37284869283108
  H           1.90330964151871     -2.47867094931230     -0.60535578917373
  H           4.71878832770529     -1.35062778491452      1.76586721089841
  H           1.41495284303040      1.12655882316070      2.56599860086410
  H           3.70534464419369      0.37444183350564      3.33365285513497
  H           2.29154455878270      4.42042877549269      1.81899702340464
  H           2.69181010134135      4.79595834437653      0.13801013492937
  H           3.01598351069441      3.18226543497335      0.78273083544248
  H           0.54101629000118      2.80639625851447      1.06983289601642
  H           0.22804357515383      4.41217477529566      0.45575888577416
  H           1.44608522140280      4.63193636643530     -2.41463484181322
  H           0.23430374229624      0.66722092036096     -3.12365810326859
  H           0.98991284591602      2.84980945611630     -4.16091144019580
