33
Coordinates from ORCA-job Cx4C-Cx4C-LL-LL-1d0c-cluster1 E -3719.910507143236
C        4.63306687      -0.04655213      -0.58879951 # dw=0.00607
C        3.25918611      -0.61132969      -0.33568735
S        1.95768277       0.22830502      -1.29439796 # dw=0.00299
C        1.80806686       1.97944786       2.56620050 # dw=0.00958
C        0.31229768       1.81720255       2.75097107
S       -0.64688318       1.93409459       1.20224068 # dw=0.00309
C        1.21806686      -4.26455212       1.49120049 # dw=0.00638
C        1.45342632      -2.84581784       1.04124718
S        0.17452591      -1.69243138       1.63519196 # dw=0.00301
C       -0.74093314      -2.70055214      -2.43879951 # dw=0.00964
C       -1.05909500      -1.28239801      -2.86885451
S       -1.77403101      -0.24651044      -1.54722363 # dw=0.00310
Zn       0.00000000       0.00000000       0.00000000
H        5.38851699      -0.59219024      -0.01343365
H        4.68718037       1.00797487      -0.30427311
H        4.90124645      -0.11769251      -1.64666674
H        3.25244937      -1.67140805      -0.58978350
H        3.01343967      -0.53747125       0.72492693
H        2.32966814       1.91935484       3.52760625
H        2.04542423       2.94299510       2.10773625
H        2.20126187       1.19441281       1.91585739
H        0.10458116       0.84811794       3.21008603
H       -0.06796111       2.58855920       3.42630345
H        2.01965198      -4.92172855       1.13749691
H        0.26954756      -4.65048045       1.10755409
H        1.18551543      -4.33248733       2.58225026
H        2.42485309      -2.50841326       1.40368383
H        1.48918196      -2.80163416      -0.04827776
H       -0.33780243      -3.28211683      -3.27496291
H       -1.63461652      -3.20864491      -2.06714927
H        0.00064096      -2.69918194      -1.63659365
H       -1.77528867      -1.29249365      -3.69500966
H       -0.14904556      -0.79793381      -3.22971038
