33
Coordinates from ORCA-job Cx2Cx2Cx7C-LLLL-1axe-cluster2 E -3719.912199873233
  C          -1.52400000018280     -1.31300000010351      3.40699999910262
  C          -1.27053525546442      0.11555174575745      2.96565946112257
  S          -1.88932152596483      0.50390721203558      1.29062845360977
  C          -2.98299999982602      2.37199999977901     -2.16999999983725
  C          -1.55157606136321      2.59747012494642     -1.71921619409936
  S          -0.43677223223814      1.20908656009945     -2.12778058591297
  C          -1.33599999992928     -2.67599999969420     -3.34299999905430
  C          -1.58977027652389     -2.47778095027071     -1.86063498712639
  S          -0.05365032641970     -2.32557137292252     -0.88208594523991
  C           3.75699999993810     -0.24699999998129     -1.00900000021107
  C           3.09242103449553     -0.83879922576285      0.21856367324263
  S           1.88795187934313      0.27420714891949      1.02237941263445
  Zn         -0.12629934497652     -0.07247260677020     -0.16101679056884
  H          -1.15220696038822     -1.47938076147687      4.42382137400918
  H          -1.02023892717714     -2.01831438802697      2.74036476795454
  H          -2.59212325991076     -1.54469869599370      3.39174869926639
  H          -1.75575353468691      0.80946170326168      3.65736695410800
  H          -0.19903857228391      0.32604818656166      2.98900779343691
  H          -3.60972717670430      3.23808417371524     -1.93044679253408
  H          -3.40981244028339      1.49564199072373     -1.67494934304235
  H          -3.03207624099053      2.20398325097917     -3.24891655091432
  H          -1.52283658540151      2.75601013520885     -0.63909512261052
  H          -1.15126566990855      3.49750165075635     -2.19362795714830
  H          -2.27883805719546     -2.79023548268365     -3.88905226348541
  H          -0.73025597701072     -3.56867915268531     -3.51941172814861
  H          -0.80100387095237     -1.81975152961476     -3.76117911443402
  H          -2.16233711707937     -3.32090592097294     -1.46517044110118
  H          -2.19011561611599     -1.57811778597367     -1.70373543484897
  H           4.48391300698000     -0.94649501990461     -1.43588889342470
  H           4.27962277538340      0.68055276974303     -0.76189648231884
  H           3.01425051510454     -0.01722890179151     -1.77782087346453
  H           3.84958286979731     -1.08991788360935      0.96626157688556
  H           2.58060497944839     -1.76664898710607     -0.04698576556803
