33
Coordinates from ORCA-job Cx2Cx2Cx7C-LLLL-1axe-cluster2 E -3719.912199873233
C       -1.39770066      -1.24052739       3.56801679 # dw=0.01160
C       -1.14423591       0.18802435       3.12667625
S       -1.76302218       0.57637982       1.45164524 # dw=0.00300
C       -2.85670065       2.44447261      -2.00898321 # dw=0.01125
C       -1.42527672       2.66994273      -1.55819940
S       -0.31047289       1.28155917      -1.96676380 # dw=0.00308
C       -1.20970065      -2.60352739      -3.18198321 # dw=0.00881
C       -1.46347093      -2.40530834      -1.69961820
S        0.07264902      -2.25309877      -0.72106915 # dw=0.00310
C        3.88329934      -0.17452739      -0.84798321 # dw=0.01148
C        3.21872038      -0.76632662       0.37958046
S        2.01425122       0.34667976       1.18339620 # dw=0.00305
Zn       0.00000000       0.00000000       0.00000000
H       -1.02590762      -1.40690815       4.58483816
H       -0.89393958      -1.94584178       2.90138156
H       -2.46582391      -1.47222609       3.55276549
H       -1.62945419       0.88193431       3.81838374
H       -0.07273923       0.39852079       3.15002458
H       -3.48342783       3.31055678      -1.76943000
H       -3.28351310       1.56811460      -1.51393255
H       -2.90577690       2.27645586      -3.08789976
H       -1.39653724       2.82848274      -0.47807833
H       -1.02496632       3.56997426      -2.03261117
H       -2.15253871      -2.71776288      -3.72803547
H       -0.60395663      -3.49620655      -3.35839494
H       -0.67470453      -1.74727892      -3.60016232
H       -2.03603777      -3.24843331      -1.30415365
H       -2.06381627      -1.50564518      -1.54271864
H        4.61021235      -0.87402241      -1.27487210
H        4.40592212       0.75302538      -0.60087969
H        3.14054986       0.05524370      -1.61680408
H        3.97588221      -1.01744528       1.12727837
H        2.70690432      -1.69417638       0.11403103
