47
Coordinates from ORCA-job Cx2Cx35Hx54H-LLLL-1z84-cluster2 E -3371.346731097379 | rotated RESSEQ=4 alpha=0.000 beta=0.000 gamma=10.000
C       -3.38359098      -0.71390840       2.95193086 # RES=CYS RESSEQ=1 ATOM=CA dw=0.00548
C       -1.96480361      -0.75546464       2.42076339 # RES=CYS RESSEQ=1 ATOM=CB
S       -1.52577234       0.77983291       1.53028556 # RES=CYS RESSEQ=1 ATOM=SG dw=0.00255
C       -2.92059098      -0.78290840      -2.34906914 # RES=CYS RESSEQ=2 ATOM=CA dw=0.01039
C       -2.43722496      -1.71022680      -1.25385557 # RES=CYS RESSEQ=2 ATOM=CB
S       -0.62053512      -1.87105791      -1.17651935 # RES=CYS RESSEQ=2 ATOM=SG dw=0.00253
C        3.15440902      -1.36290840      -1.82706914 # RES=HIS RESSEQ=3 ATOM=CA dw=0.01120
C        2.89388450      -2.08674277      -0.51076791 # RES=HIS RESSEQ=3 ATOM=CB
C        2.85537402      -1.19129753       0.67661445 # RES=HIS RESSEQ=3 ATOM=CG
N        1.79245085      -0.36028571       0.96960475 # RES=HIS RESSEQ=3 ATOM=N dw=0.00298
C        3.79819480      -1.03274545       1.65183904 # RES=HIS RESSEQ=3 ATOM=C
C        2.09051441       0.27043577       2.08924774 # RES=HIS RESSEQ=3 ATOM=C
N        3.29467700      -0.10786731       2.52708798 # RES=HIS RESSEQ=3 ATOM=N
C        2.22690872       3.49610008       1.27602391 # RES=HIS RESSEQ=4 ATOM=CA dw=0.00702
C        0.85919825       3.11711470       0.71617724 # RES=HIS RESSEQ=4 ATOM=CB
C        0.86451803       2.79899180      -0.74095706 # RES=HIS RESSEQ=4 ATOM=CG
N        0.50108903       1.56788791      -1.24734009 # RES=HIS RESSEQ=4 ATOM=N dw=0.00296
C        1.18440386       3.60989047      -1.79415327 # RES=HIS RESSEQ=4 ATOM=C
C        0.59489082       1.64191145      -2.56189284 # RES=HIS RESSEQ=4 ATOM=C
N        1.00677668       2.85969636      -2.92465919 # RES=HIS RESSEQ=4 ATOM=N
Zn       0.00000000       0.00000000       0.00000000 # RES=HIS RESSEQ=0
H       -3.61733058      -1.62938014       3.50450024 # RES=CYS RESSEQ=1
H       -4.10199050      -0.61569122       2.13418737 # RES=CYS RESSEQ=1
H       -3.52505470       0.13429300       3.62674712 # RES=CYS RESSEQ=1
H       -1.25845996      -0.89563736       3.24287982 # RES=CYS RESSEQ=1
H       -1.83863673      -1.60084516       1.74056703 # RES=CYS RESSEQ=1
H       -4.01484569      -0.74669888      -2.37296668 # RES=CYS RESSEQ=2
H       -2.56779012      -1.11431358      -3.32873567 # RES=CYS RESSEQ=2
H       -2.55114043       0.23291564      -2.18511048 # RES=CYS RESSEQ=2
H       -2.83515732      -2.71611935      -1.40909486 # RES=CYS RESSEQ=2
H       -2.79756197      -1.36281210      -0.28327706 # RES=CYS RESSEQ=2
H        3.14753599      -2.06894465      -2.66009125 # RES=HIS RESSEQ=3
H        4.12454597      -0.86042955      -1.81085566 # RES=HIS RESSEQ=3
H        2.38674919      -0.61035260      -2.01610659 # RES=HIS RESSEQ=3
H        3.67194804      -2.83557098      -0.34291783 # RES=HIS RESSEQ=3
H        1.94371866      -2.62557935      -0.57542493 # RES=HIS RESSEQ=3
H        4.75919735      -1.49753618       1.79579807 # RES=HIS RESSEQ=3
H        1.45536186       0.97965042       2.59592946 # RES=HIS RESSEQ=3
H        3.74575366       0.22753343       3.36358372 # RES=HIS RESSEQ=3
H        2.15398190       3.72343702       2.34166264 # RES=HIS RESSEQ=4
H        2.62967190       4.37525083       0.76819207 # RES=HIS RESSEQ=4
H        2.93992382       2.67741308       1.15009348 # RES=HIS RESSEQ=4
H        0.45823168       2.25266417       1.24989549 # RES=HIS RESSEQ=4
H        0.15779474       3.93761209       0.89740209 # RES=HIS RESSEQ=4
H        1.50846076       4.63640662      -1.83361755 # RES=HIS RESSEQ=4
H        0.37381966       0.84258491      -3.25122232 # RES=HIS RESSEQ=4
H        1.15469422       3.16956965      -3.87243829 # RES=HIS RESSEQ=4
