47
Coordinates from ORCA-job Cx2Cx59Hx48H-LLLL-1gup-cluster3 E -3371.348112550572
C       -0.21932827       2.29774339      -3.84539894 # dw=0.00542
C       -0.49831114       1.19094350      -2.85220250
S       -0.75702592       1.83648705      -1.16170543 # dw=0.00257
C        3.22067173       1.82574339      -0.02239895
C        2.86024885       0.88251918      -1.15150638
S        2.11341245      -0.68955832      -0.59603358 # dw=0.00261
C       -0.18032827      -3.64825661       1.79560105
C       -0.14376042      -3.57696204       0.27284107
C       -1.30938586      -2.85946287      -0.30775974
N       -1.37624963      -1.48494485      -0.39946157 # dw=0.00296
C       -2.47466628      -3.37481063      -0.79954854 # dw=0.00351
C       -2.54563132      -1.18671041      -0.93312976
N       -3.23547954      -2.30289240      -1.18377066
C       -3.45432827       0.31474339       2.33860105 # dw=0.01065
C       -2.36320511       1.37636837       2.24708320
C       -1.05721194       0.92312021       2.79739979
N       -0.08727611       0.32114792       2.02307357 # dw=0.00287
C       -0.59931889       0.97432243       4.08333773 # dw=0.00342
C        0.92107042       0.02238049       2.82045647
N        0.64364519       0.40017843       4.07127508
Zn       0.00000000       0.00000000       0.00000000
H       -0.09154771       1.89111570      -4.85367302
H        0.69131076       2.84005793      -3.57861916
H       -1.04196880       3.01715284      -3.87295058
H        0.33484324       0.48421486      -2.82836379
H       -1.38744557       0.62991483      -3.15206828
H        3.67904668       2.74054628      -0.41246868
H        3.92482268       1.35816154       0.67032771
H        2.32887808       2.10683666       0.54373939
H        2.16355490       1.37272339      -1.83458022
H        3.75293401       0.62048688      -1.72478809
H        0.70284262      -4.16427201       2.17856798
H       -1.06716644      -4.18669729       2.13752753
H       -0.20356816      -2.64734558       2.23260784
H        0.77425279      -3.07813480      -0.05159840
H       -0.11885490      -4.58804357      -0.14078271
H       -2.81598605      -4.39063604      -0.90892968
H       -2.89433230      -0.18878983      -1.14823867
H       -4.15421144      -2.34359993      -1.59619358
H       -4.38097364       0.67423921       1.88566063
H       -3.65978594       0.05678802       3.38002651
H       -3.15390172      -0.59739820       1.81812079
H       -2.67997094       2.27330101       2.78512457
H       -2.21706558       1.66275391       1.20173758
H       -1.04211370       1.36567923       4.98395850
H        1.84241589      -0.44668493       2.51398678
H        1.25397694       0.28833619       4.86565032
