40
Coordinates from ORCA-job pdcd E -3545.630526372056
  Zn          0.03303111631956     -0.24465461951232      0.10146578718629
  N           0.43597988453849     -0.83243943221912     -1.85761474963108
  C           0.01130313733031     -1.25477679407145     -4.01778243477858
  C          -0.48875631504054     -1.28737358781350     -5.41633427568389
  C          -1.34300000226007     -2.51400000202919     -5.73000000265173
  C          -0.25450064637467     -0.41772242590037     -2.97136887919759
  C           1.11320817800406     -1.90192766562348     -2.21513485595104
  N           0.88448767467530     -2.18415080341588     -3.50711960112854
  S          -0.19642081566877      2.08020546485977      0.13412334074495
  C           1.52079982801551      2.70590442523782      0.04014064455011
  C           1.59500000379167      4.21900000763513      0.16000000126663
  S           1.80664088243364     -1.12636800476081      1.33654550303409
  C           1.03307147267422     -1.38281395659511      2.97261335017006
  C           1.04299999858775     -0.15500000045801      3.86500000182101
  S          -2.04434744448105     -1.25276614524197      0.51019429458125
  C          -2.21944056686068     -2.54176982131809     -0.77619598770146
  C          -1.54100000011936     -3.86000000514793     -0.45300100043591
  H          -1.06887721480680     -0.37658487121993     -5.57909120211220
  H           0.36010085575215     -1.24683314506488     -6.10712818829407
  H          -2.21621855222509     -2.55676999809315     -5.07517255599487
  H          -0.77334438361319     -3.43635529269601     -5.59479159295751
  H          -1.68961608830968     -2.48097315430433     -6.76460782628888
  H          -0.90159789209235      0.44477175074966     -2.94663337194038
  H           1.75613387687354     -2.48464144283940     -1.57468712886349
  H           1.29493342617469     -2.95182470723681     -4.01625449968482
  H           1.95849796386204      2.38627881618162     -0.90891989594808
  H           2.10510959312195      2.23718546686412      0.83578408373775
  H           1.03006597838717      4.70389603533874     -0.64020362292925
  H           2.63353126417082      4.55852371780444      0.09838436773443
  H           1.18184475429464      4.55573895180109      1.11422974486409
  H           1.57486608058855     -2.19857563837004      3.45809562593975
  H           0.00718125035673     -1.72456948909247      2.81327142617234
  H           2.06373481328176      0.19462791988752      4.03840582847228
  H           0.58792397247234     -0.37843197397505      4.83575294734601
  H           0.48190830362770      0.66334812534330      3.40587047392459
  H          -3.29262641143773     -2.70273617168501     -0.90793579295583
  H          -1.84013399013630     -2.14722505316138     -1.72073829514732
  H          -1.93889130629811     -4.29055800481419      0.46938923321865
  H          -0.46495905837209     -3.72120706946481     -0.32013180798070
  H          -1.69438123162494     -4.58103986504980     -1.26278260808129
