33
Coordinates from ORCA-job 1bto-4cys-charge--1 E -3719.755888799888
  C          -1.09696800045860     -2.91230389830222     -1.64651089223729
  C          -1.13891185464320     -3.21115692528606     -0.16248679398266
  S          -1.54189796458683     -1.75510753744363      0.86491726809331
  C          -2.25046856493340      3.17502230383690      1.58251492129955
  C          -1.71015175591054      1.79998585902692      1.91170115526426
  S           0.07444862220486      1.65152943899776      1.62764859937513
  C          -2.07599480515006      2.38557370390482     -2.52238259123905
  C          -1.65953269274632      1.17997372840600     -1.70665153098582
  S           0.09738821983883      1.21773264097321     -1.26488267386278
  C           3.63110396072171      1.01886982879993      0.07099678981959
  C           3.32499587204946     -0.31280184362989     -0.58141653763141
  S           2.33202116810063     -1.43659417124129      0.45946681682235
  Zn          0.28020366224508     -0.44302154030818      0.47375891188888
  H          -0.87887405359974     -3.81912884586920     -2.22009665233654
  H          -0.32146816130822     -2.17414331587258     -1.86878402156131
  H          -2.05205002613095     -2.50879618990692     -1.99124746492751
  H          -0.18058676515718     -3.61890581837408      0.16636377038677
  H          -1.90191949230272     -3.96362073460899      0.05177148430965
  H          -3.32178041553364      3.22414274312819      1.79799074749378
  H          -2.10366677462216      3.40945339160029      0.52619080574717
  H          -1.74788572165364      3.94459154062622      2.17251510191902
  H          -1.86943938099538      1.56188920716609      2.96749766926847
  H          -2.21828659052903      1.02231668929244      1.33746897189028
  H          -3.13633289720091      2.31767656446932     -2.78250131762227
  H          -1.50235029426757      2.45012802894218     -3.44962845103968
  H          -1.92045375733872      3.31026922115747     -1.96240834635287
  H          -1.83609179001808      0.25178421312604     -2.25552064909656
  H          -2.24017081790194      1.11007282050561     -0.78510051527086
  H           4.24996733552301      1.63888685876959     -0.58606124917664
  H           4.16592157120710      0.87912633053835      1.01344517236089
  H           2.71107498632073      1.56855444363986      0.28551848407704
  H           4.25288814223576     -0.84252205459089     -0.81100352567026
  H           2.79865603654167     -0.15774968147328     -1.52591445702261
